T-beta-PC
1.0
       10.5900001526         0.0000000000         0.0000000000
        0.0000000000         5.1100001335         0.0000000000
        0.0000000000         0.0000000000        20.0000000000
    P    C
    8    8
Direct
     0.000000000         0.000000000         0.092699997
     0.000000000         0.448139995         0.092699997
     0.500000000         0.224069998         0.092699997
     0.500000000         0.775929987         0.092699997
     0.126910001         0.000000000         0.000000000
     0.126910001         0.551859975         0.000000000
     0.626909971         0.275929987         0.000000000
     0.626909971         0.724070013         0.000000000
     0.285050005         0.000000000         0.039290000
     0.285050005         0.500000000         0.039290000
     0.785049975         0.250000000         0.039290000
     0.785049975         0.750000000         0.039290000
     0.341850013         0.750000000         0.053410001
     0.341850013         0.250000000         0.053410001
     0.841849983         0.000000000         0.053410001
     0.841849983         0.500000000         0.053410001
