D-beta-PC
1.0
        4.7600002289         0.0000000000         0.0000000000
        0.0000000000         2.9500000477         0.0000000000
        0.0000000000         0.0000000000        15.0000000000
    P    C
    2    2
Direct
     0.000000000         0.000000000         0.000000000
     0.659919977         0.000000000         0.114490002
     0.202749997         0.500000000         0.035179999
     0.457139999         0.500000000         0.079310000
