V(OH2)                                  
   1.00000000000000     
     3.2314917044702738    0.0000000000000000    0.0000000000000000
     0.0000000000000000    5.4404087637381799    0.0000000000000000
     0.0000000000000000    0.0000000000000000   20.0000000000000000
   V    H    O 
     2     4     4
Direct
  0.0000000000000000 -0.0000000000000000  0.5000000000000000
  0.5000000000000000  0.5000000000000000  0.5000000000000000
  0.0000000000000000  0.3368863460360489  0.6045546740034140
  0.5000000000000000  0.8368863760360513  0.6045546740034140
  0.4999999699999975  0.1631136539639511  0.3954453259965862
  0.0000000000000000  0.6631136239639487  0.3954453259965862
 -0.0000000000000000  0.3381071285133509  0.5560857539982414
  0.5000000000000000  0.8381071585133534  0.5560857539982414
  0.4999999699999975  0.1618928714866490  0.4439142760017614
  0.0000000000000000  0.6618928414866466  0.4439142760017614
 
  0.00000000E+00  0.00000000E+00  0.00000000E+00
  0.00000000E+00  0.00000000E+00  0.00000000E+00
  0.00000000E+00  0.00000000E+00  0.00000000E+00
  0.00000000E+00  0.00000000E+00  0.00000000E+00
  0.00000000E+00  0.00000000E+00  0.00000000E+00
  0.00000000E+00  0.00000000E+00  0.00000000E+00
  0.00000000E+00  0.00000000E+00  0.00000000E+00
  0.00000000E+00  0.00000000E+00  0.00000000E+00
  0.00000000E+00  0.00000000E+00  0.00000000E+00
  0.00000000E+00  0.00000000E+00  0.00000000E+00
