Fe(OH2)                                 
   1.00000000000000     
     3.2377985454470597    0.0000000000000000    0.0000000000000000
     0.0000000000000000    5.4839126266720006    0.0000000000000000
     0.0000000000000000    0.0000000000000000   20.0000000000000000
   Fe   H    O 
     2     4     4
Direct
 -0.0000000000000000 -0.0000000000000000  0.5000000000000000
  0.5000000000000000  0.5000000000000000  0.5000000000000000
 -0.0000000000000000  0.3239650730614907  0.5999967670406322
  0.5000000000000000  0.8239651030614935  0.5999967670406322
  0.4999999699999975  0.1760349269385093  0.4000032629593703
 -0.0000000000000000  0.6760348969385065  0.4000032629593703
 -0.0000000000000000  0.3236357582745759  0.5515372830230796
  0.5000000000000000  0.8236357882745784  0.5515372830230796
  0.4999999699999975  0.1763642417254241  0.4484627459769192
  0.0000000000000000  0.6763642117254216  0.4484627459769192
 
  0.00000000E+00  0.00000000E+00  0.00000000E+00
  0.00000000E+00  0.00000000E+00  0.00000000E+00
  0.00000000E+00  0.00000000E+00  0.00000000E+00
  0.00000000E+00  0.00000000E+00  0.00000000E+00
  0.00000000E+00  0.00000000E+00  0.00000000E+00
  0.00000000E+00  0.00000000E+00  0.00000000E+00
  0.00000000E+00  0.00000000E+00  0.00000000E+00
  0.00000000E+00  0.00000000E+00  0.00000000E+00
  0.00000000E+00  0.00000000E+00  0.00000000E+00
  0.00000000E+00  0.00000000E+00  0.00000000E+00
