Fe(OH2)                                 
   1.00000000000000     
     3.3063878743115147    0.0000000000000000    0.0000000000000000
     0.0000000000000000    5.6706864985904168    0.0000000000000000
     0.0000000000000000    0.0000000000000000   20.0000000000000000
   Fe   H    O 
     2     4     4
Direct
  0.0000000000000000 -0.0000000000000000  0.5000000000000000
  0.5000000000000000  0.5000000000000000  0.5000000000000000
  0.0000000000000000  0.3199991757617292  0.5997370301967182
  0.5000000000000000  0.8199992057617321  0.5997370301967182
  0.4999999699999975  0.1800008242382705  0.4002629998032844
 -0.0000000000000000  0.6800007942382679  0.4002629998032844
 -0.0000000000000000  0.3297951222259777  0.5513650964610979
  0.5000000000000000  0.8297951522259802  0.5513650964610979
  0.4999999699999975  0.1702048777740221  0.4486349325389007
 -0.0000000000000000  0.6702048477740198  0.4486349325389007
 
  0.00000000E+00  0.00000000E+00  0.00000000E+00
  0.00000000E+00  0.00000000E+00  0.00000000E+00
  0.00000000E+00  0.00000000E+00  0.00000000E+00
  0.00000000E+00  0.00000000E+00  0.00000000E+00
  0.00000000E+00  0.00000000E+00  0.00000000E+00
  0.00000000E+00  0.00000000E+00  0.00000000E+00
  0.00000000E+00  0.00000000E+00  0.00000000E+00
  0.00000000E+00  0.00000000E+00  0.00000000E+00
  0.00000000E+00  0.00000000E+00  0.00000000E+00
  0.00000000E+00  0.00000000E+00  0.00000000E+00
