generated by phonopy
   1.0
     6.6127757486230294    0.0000000000000000    0.0000000000000000
     0.0000000000000000   11.3413729971808337    0.0000000000000000
     0.0000000000000000    0.0000000000000000   20.0000000000000000
Fe H O
   8   16   16
Direct
  0.0000000000000000  0.0000000000000000  0.5000000000000000
  0.4999999999999999  0.0000000000000000  0.5000000000000000
  0.0000000000000000  0.5000000000000000  0.5000000000000000
  0.4999999999999999  0.5000000000000000  0.5000000000000000
  0.2500000000000000  0.2500000000000000  0.5000000000000000
  0.7499999999999999  0.2500000000000000  0.5000000000000000
  0.2500000000000000  0.7500000000000000  0.5000000000000000
  0.7499999999999999  0.7500000000000000  0.5000000000000000
  0.0000000000000000  0.1599995878808646  0.6002370301967183
  0.4999999999999999  0.1599995878808646  0.5997370301967182
  0.0000000000000000  0.6599995878808647  0.5997370301967182
  0.4999999999999999  0.6599995878808647  0.5997370301967182
  0.2500000000000000  0.4099996028808661  0.5997370301967182
  0.7499999999999999  0.4099996028808661  0.5997370301967182
  0.2500000000000000  0.9099996028808662  0.5997370301967182
  0.7499999999999999  0.9099996028808662  0.5997370301967182
  0.2499999849999987  0.0900004121191352  0.4002629998032844
  0.7499999849999988  0.0900004121191352  0.4002629998032844
  0.2499999849999987  0.5900004121191352  0.4002629998032844
  0.7499999849999988  0.5900004121191352  0.4002629998032844
  0.0000000000000000  0.3400003971191340  0.4002629998032844
  0.4999999999999999  0.3400003971191340  0.4002629998032844
  0.0000000000000000  0.8400003971191340  0.4002629998032844
  0.4999999999999999  0.8400003971191340  0.4002629998032844
  0.0000000000000000  0.1648975611129889  0.5513650964610979
  0.4999999999999999  0.1648975611129889  0.5513650964610979
  0.0000000000000000  0.6648975611129889  0.5513650964610979
  0.4999999999999999  0.6648975611129889  0.5513650964610979
  0.2500000000000000  0.4148975761129901  0.5513650964610979
  0.7499999999999999  0.4148975761129901  0.5513650964610979
  0.2500000000000000  0.9148975761129901  0.5513650964610979
  0.7499999999999999  0.9148975761129901  0.5513650964610979
  0.2499999849999987  0.0851024388870111  0.4486349325389007
  0.7499999849999988  0.0851024388870111  0.4486349325389007
  0.2499999849999987  0.5851024388870111  0.4486349325389007
  0.7499999849999988  0.5851024388870111  0.4486349325389007
  0.0000000000000000  0.3351024238870099  0.4486349325389007
  0.4999999999999999  0.3351024238870099  0.4486349325389007
  0.0000000000000000  0.8351024238870101  0.4486349325389007
  0.4999999999999999  0.8351024238870101  0.4486349325389007
