T-alpha-PC                              
   1.00000000000000     
     9.7920615163814535    0.0000000000000000    0.0000000000000000
     0.0000000000000000    5.0636704983151484    0.0000000000000000
     0.0000000000000000    0.0000000000000000   20.0000000000000000
   P    C 
     8     8
Direct

 -0.0043536528617824  0.0225630203225974  0.1098158476674703
  0.0005435668984053  0.4640347918524132  0.1118349146509405
  0.4956499704685984  0.2211858004454162  0.0034493397272009
  0.5005407768439505  0.7797139415905023  0.0014309470611894
  0.0559090109284159 -0.0359493373409528  0.0014382932873004
  0.0608010900580581  0.5225799800464647  0.0034558118772458
  0.5559067787368603  0.2797027164658702  0.1118269402948969
  0.5608049393993194  0.7211702720786322  0.1098079926486992
  0.2415802551803321 -0.0059079256045038  0.0089542042247195
  0.2470847055667921  0.4996525145173748  0.0089787732241327
  0.3093639468006164  0.2441253929468790  0.0089774249852869
  0.3148699096399899  0.7496812775135980  0.0089517776535846
  0.7415787325298834  0.2496583091556724  0.1043111171973620
  0.7470857965648692  0.7440970407750050  0.1042866792474934
  0.8093629690603533 -0.0003724946687577  0.1042868813139904
  0.8148712268973248  0.4940646432844136  0.1043130869384769
 
  0.00000000E+00  0.00000000E+00  0.00000000E+00
  0.00000000E+00  0.00000000E+00  0.00000000E+00
  0.00000000E+00  0.00000000E+00  0.00000000E+00
  0.00000000E+00  0.00000000E+00  0.00000000E+00
  0.00000000E+00  0.00000000E+00  0.00000000E+00
  0.00000000E+00  0.00000000E+00  0.00000000E+00
  0.00000000E+00  0.00000000E+00  0.00000000E+00
  0.00000000E+00  0.00000000E+00  0.00000000E+00
  0.00000000E+00  0.00000000E+00  0.00000000E+00
  0.00000000E+00  0.00000000E+00  0.00000000E+00
  0.00000000E+00  0.00000000E+00  0.00000000E+00
  0.00000000E+00  0.00000000E+00  0.00000000E+00
  0.00000000E+00  0.00000000E+00  0.00000000E+00
  0.00000000E+00  0.00000000E+00  0.00000000E+00
  0.00000000E+00  0.00000000E+00  0.00000000E+00
  0.00000000E+00  0.00000000E+00  0.00000000E+00
