T-alpha-PC
1.0
        9.8400001526         0.0000000000         0.0000000000
        0.0000000000         5.1100001335         0.0000000000
        0.0000000000         0.0000000000        30.0000000000
    P    C
    8    8
Direct
     0.000000000         0.000000000         0.075510003
     0.000000000         0.448139995         0.075510003
     0.500000000         0.224069998         0.000000000
     0.500000000         0.775929987         0.000000000
     0.056449998         0.000000000         0.000000000
     0.056449998         0.551859975         0.000000000
     0.556450009         0.275929987         0.075510003
     0.556450009         0.724070013         0.075510003
     0.244460002         0.000000000         0.000000000
     0.244460002         0.500000000         0.000000000
     0.311989993         0.250000000         0.000000000
     0.311989993         0.750000000         0.000000000
     0.744459987         0.250000000         0.075510003
     0.744459987         0.699999988         0.075510003
     0.811990023         0.000000000         0.075510003
     0.811990023         0.500000000         0.075510003
