Talpha                                  
   1.00000000000000     
     9.7910771235294618    0.0000000000000000    0.0000000000000000
     0.0000000000000000    5.0632890005488829    0.0000000000000000
     0.0000000000000000    0.0000000000000000   15.0000000000000000
   P    C 
     8     8
Direct
  0.2175125885432525  0.1506039646656490  0.9935267671844963
  0.7824874264567450  0.8493960203343462  0.9935267671844963
  0.2776099402217115  0.0922943252125779  0.8490189077320652
  0.7223900887782876  0.9077056447874268  0.8490189077320652
  0.2223902440941833  0.5922942538783723  0.9962736614344666
  0.7776097409058190  0.4077057461216277  0.9962736614344666
  0.2824870811291302  0.6506049292659760  0.8517657370278066
  0.7175129488708724  0.3493950707340239  0.8517657370278066
  0.4633573876037004  0.1222166879439305  0.8591009556313668
  0.5366425833963008  0.8777833040560689  0.8591009556313668
  0.4688417900658572  0.6277572765866630  0.8591415138288283
  0.5311582099341428  0.3722427234133370  0.8591415138288283
  0.0311580568235660  0.1277573752022319  0.9861507324621501
  0.9688419431764340  0.8722426097977702  0.9861507324621501
  0.0366427402120996  0.6222165929478275  0.9861917586988279
  0.9633572597879003  0.3777834070521725  0.9861917586988279
 
  0.00000000E+00  0.00000000E+00  0.00000000E+00
  0.00000000E+00  0.00000000E+00  0.00000000E+00
  0.00000000E+00  0.00000000E+00  0.00000000E+00
  0.00000000E+00  0.00000000E+00  0.00000000E+00
  0.00000000E+00  0.00000000E+00  0.00000000E+00
  0.00000000E+00  0.00000000E+00  0.00000000E+00
  0.00000000E+00  0.00000000E+00  0.00000000E+00
  0.00000000E+00  0.00000000E+00  0.00000000E+00
  0.00000000E+00  0.00000000E+00  0.00000000E+00
  0.00000000E+00  0.00000000E+00  0.00000000E+00
  0.00000000E+00  0.00000000E+00  0.00000000E+00
  0.00000000E+00  0.00000000E+00  0.00000000E+00
  0.00000000E+00  0.00000000E+00  0.00000000E+00
  0.00000000E+00  0.00000000E+00  0.00000000E+00
  0.00000000E+00  0.00000000E+00  0.00000000E+00
  0.00000000E+00  0.00000000E+00  0.00000000E+00
