T-alpha-PC                              
1.0
        9.7920618057         0.0000000000         0.0000000000
        0.0000000000         5.0636706352         0.0000000000
        0.0000000000         0.0000000000        20.0000000000
    C    P
    8    8
Direct
     0.241580248         0.994092047         0.008954205
     0.247084707         0.499652505         0.008978773
     0.309363961         0.244125396         0.008977425
     0.314869910         0.749681294         0.008951778
     0.741578758         0.249658316         0.104311116
     0.747085810         0.744097054         0.104286678
     0.809362948         0.999627531         0.104286879
     0.814871252         0.494064629         0.104313090
     0.995646358         0.022563020         0.109815851
     0.000543567         0.464034796         0.111834913
     0.495649964         0.221185803         0.003449340
     0.500540793         0.779713929         0.001430947
     0.055909012         0.964050651         0.001438293
     0.060801089         0.522579968         0.003455812
     0.555906773         0.279702723         0.111826941
     0.560804963         0.721170247         0.109807990
