MoTe2                                   
   1.00000000000000     
     1.7635632239026586   -3.0545811061593722    0.0000000000000000
     1.7635632239026586    3.0545811061593722    0.0000000000000000
    -0.0000000000000000   -0.0000000000000000   14.0387404670187870
   Mo   Te
     2     4
Direct
  0.6666666666666714  0.3333333333333286  0.2500000000000000
  0.3333333333333286  0.6666666666666714  0.7500000000000000
  0.6666666666666714  0.3333333333333286  0.6208195473119249
  0.3333333333333286  0.6666666666666714  0.1208195473119249
  0.6666666666666714  0.3333333333333286  0.8791804526880751
  0.3333333333333286  0.6666666666666714  0.3791804526880751
 
  0.00000000E+00  0.00000000E+00  0.00000000E+00
  0.00000000E+00  0.00000000E+00  0.00000000E+00
  0.00000000E+00  0.00000000E+00  0.00000000E+00
  0.00000000E+00  0.00000000E+00  0.00000000E+00
  0.00000000E+00  0.00000000E+00  0.00000000E+00
  0.00000000E+00  0.00000000E+00  0.00000000E+00
