Tbeta                                   
   1.00000000000000     
    25.0342702010705764    0.0000000000000000    0.0000000000000000
     0.0000000000000000    5.0635416056927536    0.0000000000000000
     0.0000000000000000    0.0000000000000000   25.0342702010705764
   P    C 
    24    24
Direct
  0.3563991301027727  0.1515234606043592  0.2654021696476008
  0.1637284544525599  0.8474459864268766  0.4382493737382873
  0.3880429039306748  0.6525542834762206  0.3510980316845078
  0.2221216482567314  0.3484762755697872  0.3679973430027772
  0.3892136294542965  0.0932540921830167  0.3496174246307930
  0.2207163327650505  0.9075356359264859  0.3681782354326586
  0.3558532369367668  0.5924640802109522  0.2667097164180205
  0.1655960752121928  0.4067454928675360  0.4385230020242759
  0.0661333711200527  0.1515241881211509  0.3030067250017510
  0.0127784549696344  0.8474457165237794  0.0497233272158013
  0.9760970152189330  0.6525549032221747  0.2875610391260039
  0.0444222287975364  0.3484765393956337  0.1354191892527083
  0.9767940007517097  0.0932540397229502  0.2893153613332871
  0.0449681219635423  0.9075359197890478  0.1341116424822886
  0.0652738554565957  0.5924641331726406  0.3018802260169409
  0.0116077294460055  0.4067459158169839  0.0512039342695161
  0.1786997106435777  0.1515237244302057  0.0328240158975248
  0.4247243436813761  0.8474450967778253  0.1132603197742981
  0.2370929044477492  0.6525540135731234  0.9625719851620218
  0.3346879877802493  0.3484758118788420  0.0978146338985582
  0.2352252836881092  0.0932545151324646  0.9622983568760262
  0.3355475034437134  0.9075358668273594  0.0989411328833683
  0.1801050261352515  0.5924643640735141  0.0326431234676505
  0.4240273581485994  0.4067459682770505  0.1115059975670221
  0.3200096021929042  0.1227399374869478  0.3746902281511950
  0.2919170998940430  0.8773775495558667  0.3793226271793984
  0.4011045122752606  0.6226218780678181  0.2106199100503332
  0.1092805174088198  0.3772600816493892  0.3911267496168662
  0.3183474381237801  0.6283697334298850  0.3750904619745796
  0.2940248136095320  0.3737456957365026  0.3791326165383353
  0.4019937719887707  0.1262538685004984  0.2086995363139152
  0.1081028207464456  0.8716301898184042  0.3898874130838266
  0.9896825326746637  0.1227404084270987  0.2168465832697279
  0.9997168466250415  0.8773781219321819  0.1902014488499759
  0.0912223601507094  0.6226224314108606  0.3691142215399665
  0.0808117567074049  0.3772600625130522  0.0261311307491070
  0.9901669840075158  0.6283702416994004  0.2152069201286366
  0.9988275875883872  0.3737461314995016  0.1921218106976994
  0.0924408534233052  0.1262542654486154  0.3708444884812749
  0.0824739103767058  0.8716302665701150  0.0257309037463429
  0.2915408414914893  0.1227399183506108  0.0096946092834429
  0.3095989987495997  0.8773775685891394  0.0317071373603426
  0.1089042590062661  0.6226224504441333  0.0214987317209108
  0.4111388262256455  0.3772595915729013  0.1839747756305812
  0.2927185492606057  0.6283698101815958  0.0109339514126816
  0.3083805154344859  0.3737457345513846  0.0299768769495543
  0.1067965346564392  0.1262543042634974  0.0216887477201482
  0.4106543741858673  0.8716297583005996  0.1856144263548529
 
  0.00000000E+00  0.00000000E+00  0.00000000E+00
  0.00000000E+00  0.00000000E+00  0.00000000E+00
  0.00000000E+00  0.00000000E+00  0.00000000E+00
  0.00000000E+00  0.00000000E+00  0.00000000E+00
  0.00000000E+00  0.00000000E+00  0.00000000E+00
  0.00000000E+00  0.00000000E+00  0.00000000E+00
  0.00000000E+00  0.00000000E+00  0.00000000E+00
  0.00000000E+00  0.00000000E+00  0.00000000E+00
  0.00000000E+00  0.00000000E+00  0.00000000E+00
  0.00000000E+00  0.00000000E+00  0.00000000E+00
  0.00000000E+00  0.00000000E+00  0.00000000E+00
  0.00000000E+00  0.00000000E+00  0.00000000E+00
  0.00000000E+00  0.00000000E+00  0.00000000E+00
  0.00000000E+00  0.00000000E+00  0.00000000E+00
  0.00000000E+00  0.00000000E+00  0.00000000E+00
  0.00000000E+00  0.00000000E+00  0.00000000E+00
  0.00000000E+00  0.00000000E+00  0.00000000E+00
  0.00000000E+00  0.00000000E+00  0.00000000E+00
  0.00000000E+00  0.00000000E+00  0.00000000E+00
  0.00000000E+00  0.00000000E+00  0.00000000E+00
  0.00000000E+00  0.00000000E+00  0.00000000E+00
  0.00000000E+00  0.00000000E+00  0.00000000E+00
  0.00000000E+00  0.00000000E+00  0.00000000E+00
  0.00000000E+00  0.00000000E+00  0.00000000E+00
  0.00000000E+00  0.00000000E+00  0.00000000E+00
  0.00000000E+00  0.00000000E+00  0.00000000E+00
  0.00000000E+00  0.00000000E+00  0.00000000E+00
  0.00000000E+00  0.00000000E+00  0.00000000E+00
  0.00000000E+00  0.00000000E+00  0.00000000E+00
  0.00000000E+00  0.00000000E+00  0.00000000E+00
  0.00000000E+00  0.00000000E+00  0.00000000E+00
  0.00000000E+00  0.00000000E+00  0.00000000E+00
  0.00000000E+00  0.00000000E+00  0.00000000E+00
  0.00000000E+00  0.00000000E+00  0.00000000E+00
  0.00000000E+00  0.00000000E+00  0.00000000E+00
  0.00000000E+00  0.00000000E+00  0.00000000E+00
  0.00000000E+00  0.00000000E+00  0.00000000E+00
  0.00000000E+00  0.00000000E+00  0.00000000E+00
  0.00000000E+00  0.00000000E+00  0.00000000E+00
  0.00000000E+00  0.00000000E+00  0.00000000E+00
  0.00000000E+00  0.00000000E+00  0.00000000E+00
  0.00000000E+00  0.00000000E+00  0.00000000E+00
  0.00000000E+00  0.00000000E+00  0.00000000E+00
  0.00000000E+00  0.00000000E+00  0.00000000E+00
  0.00000000E+00  0.00000000E+00  0.00000000E+00
  0.00000000E+00  0.00000000E+00  0.00000000E+00
  0.00000000E+00  0.00000000E+00  0.00000000E+00
  0.00000000E+00  0.00000000E+00  0.00000000E+00
