Tbeta                                   
   1.00000000000000     
    10.2848816682239814    0.0000000000000000    0.0000000000000000
     0.0000000000000000    6.5812679077883169    0.0000000000000000
     0.0000000000000000    0.0000000000000000   15.0000000000000000
   P    C 
     8     8
Direct
  0.1847092367647178  0.2152513265499252  0.9443559832329456
  0.8152907632352893  0.7847486434500723  0.0556440167670544
  0.3152907632352822  0.7152513565499277  0.0556440167670544
  0.6847092367647107  0.2847486734500677  0.9443559832329456
  0.3036061371592993  0.0785969446971180  0.0579579828668741
  0.6963938628407007  0.9214030333028944  0.9420420091331252
  0.1963938628407007  0.5785969666971056  0.9420420091331252
  0.8036061371592993  0.4214030633028827  0.0579579828668741
  0.4640445566869786  0.0999778512327225  0.0083318470686820
  0.5359554433130214  0.9000221487672775  0.9916681569313184
  0.0359554433130214  0.5999778512327225  0.9916681569313184
  0.9640445566869786  0.4000221487672775  0.0083318470686820
  0.4680281731919322  0.7293442295902111  0.0066814566063158
  0.5319718558080737  0.2706557704097889  0.9933185373936908
  0.0319718268080678  0.2293442295902111  0.9933185373936908
  0.9680281441919263  0.7706557704097889  0.0066814566063158
 
  0.00000000E+00  0.00000000E+00  0.00000000E+00
  0.00000000E+00  0.00000000E+00  0.00000000E+00
  0.00000000E+00  0.00000000E+00  0.00000000E+00
  0.00000000E+00  0.00000000E+00  0.00000000E+00
  0.00000000E+00  0.00000000E+00  0.00000000E+00
  0.00000000E+00  0.00000000E+00  0.00000000E+00
  0.00000000E+00  0.00000000E+00  0.00000000E+00
  0.00000000E+00  0.00000000E+00  0.00000000E+00
  0.00000000E+00  0.00000000E+00  0.00000000E+00
  0.00000000E+00  0.00000000E+00  0.00000000E+00
  0.00000000E+00  0.00000000E+00  0.00000000E+00
  0.00000000E+00  0.00000000E+00  0.00000000E+00
  0.00000000E+00  0.00000000E+00  0.00000000E+00
  0.00000000E+00  0.00000000E+00  0.00000000E+00
  0.00000000E+00  0.00000000E+00  0.00000000E+00
  0.00000000E+00  0.00000000E+00  0.00000000E+00
