Tbeta                                   
   1.00000000000000     
    13.1348289782576270    0.0000000000000000    0.0000000000000000
     0.0000000000000000    5.0625137752217819    0.0000000000000000
     0.0000000000000000    0.0000000000000000   15.0000000000000000
   P    C 
     8     8
Direct
  0.1846304986686029  0.1510873441856226  0.9403188312619921
  0.8153695013313970  0.8489126258143819  0.0596811687380079
  0.3153695013313970  0.6510873741856181  0.0596811687380079
  0.6846304986686030  0.3489126558143773  0.9403188312619921
  0.3113169364712468  0.0929699521950874  0.0606538148700750
  0.6886830635287534  0.9070300258049178  0.9393461771299245
  0.1886830635287532  0.5929699741950822  0.9393461771299245
  0.8113169364712466  0.4070300558049133  0.0606538148700750
  0.4684059355267300  0.1222807067144079  0.0089429378906560
  0.5315940644732700  0.8777192932855921  0.9910570661093443
  0.0315940644732700  0.6222807067144079  0.9910570661093443
  0.9684059355267300  0.3777192932855920  0.0089429378906560
  0.4728461025815496  0.6276499322270692  0.0072677551912532
  0.5271539264184495  0.3723500677729307  0.9927322388087533
  0.0271538974184504  0.1276499322270693  0.9927322388087533
  0.9728460735815505  0.8723500677729308  0.0072677551912532
 
  0.00000000E+00  0.00000000E+00  0.00000000E+00
  0.00000000E+00  0.00000000E+00  0.00000000E+00
  0.00000000E+00  0.00000000E+00  0.00000000E+00
  0.00000000E+00  0.00000000E+00  0.00000000E+00
  0.00000000E+00  0.00000000E+00  0.00000000E+00
  0.00000000E+00  0.00000000E+00  0.00000000E+00
  0.00000000E+00  0.00000000E+00  0.00000000E+00
  0.00000000E+00  0.00000000E+00  0.00000000E+00
  0.00000000E+00  0.00000000E+00  0.00000000E+00
  0.00000000E+00  0.00000000E+00  0.00000000E+00
  0.00000000E+00  0.00000000E+00  0.00000000E+00
  0.00000000E+00  0.00000000E+00  0.00000000E+00
  0.00000000E+00  0.00000000E+00  0.00000000E+00
  0.00000000E+00  0.00000000E+00  0.00000000E+00
  0.00000000E+00  0.00000000E+00  0.00000000E+00
  0.00000000E+00  0.00000000E+00  0.00000000E+00
