Fe(OH2)                                 
   1.00000000000000     
     3.4176554420465104    0.0000000000000000    0.0000000000000000
     0.0000000000000000    6.0943664758582488    0.0000000000000000
     0.0000000000000000    0.0000000000000000   20.0000000000000000
   Fe   H    O 
     2     4     4
Direct
  0.0000000000000000 -0.0000000000000000  0.5000000000000000
  0.5000000000000000  0.5000000000000000  0.5000000000000000
 -0.0000000000000000  0.3327204058099526  0.5991105126731640
  0.5000000000000000  0.8327204358099554  0.5991105126731640
  0.4999999699999975  0.1672795941900474  0.4008894573268410
 -0.0000000000000000  0.6672795641900446  0.4008894573268410
 -0.0000000000000000  0.3268309460932057  0.5504588411687877
  0.5000000000000000  0.8268309760932082  0.5504588411687877
  0.4999999699999975  0.1731690539067942  0.4495411298312138
 -0.0000000000000000  0.6731690239067918  0.4495411298312138
 
  0.00000000E+00  0.00000000E+00  0.00000000E+00
  0.00000000E+00  0.00000000E+00  0.00000000E+00
  0.00000000E+00  0.00000000E+00  0.00000000E+00
  0.00000000E+00  0.00000000E+00  0.00000000E+00
  0.00000000E+00  0.00000000E+00  0.00000000E+00
  0.00000000E+00  0.00000000E+00  0.00000000E+00
  0.00000000E+00  0.00000000E+00  0.00000000E+00
  0.00000000E+00  0.00000000E+00  0.00000000E+00
  0.00000000E+00  0.00000000E+00  0.00000000E+00
  0.00000000E+00  0.00000000E+00  0.00000000E+00
