D-alpha-PC
1.0
        8.7299995422         0.0000000000         0.0000000000
        0.0000000000         2.9500000477         0.0000000000
        0.0000000000         0.0000000000        20.0000000000
    P    C
    4    4
Direct
     0.000000000         0.000000000         0.111280002
     0.410079986         0.000000000         0.111280002
     0.500000000         0.000000000         0.000000000
     0.889460027         0.000000000         0.000000000
     0.115690000         0.500000000         0.111280002
     0.284079999         0.500000000         0.111280002
     0.615689993         0.500000000         0.000000000
     0.773769975         0.500000000         0.000000000
