Fe(OH2)                                 
   1.00000000000000     
     3.5519362411581428    0.0000000000000000    0.0000000000000000
     0.0000000000000000    6.3127860743229451    0.0000000000000000
     0.0000000000000000    0.0000000000000000   20.0000000000000000
   Fe   H    O 
     2     4     4
Direct
  0.0000000000000000  0.0000000000000000  0.5000000000000000
  0.5000000000000000  0.5000000000000000  0.5000000000000000
  0.0000000000000000  0.3278454422782589  0.5948880116441535
  0.5000000000000000  0.8278454722782611  0.5948880116441535
  0.4999999699999975  0.1721545577217413  0.4051120183558418
  0.0000000000000000  0.6721545277217389  0.4051120183558418
 -0.0000000000000000  0.3240376387416817  0.5461658866017299
  0.5000000000000000  0.8240376687416835  0.5461658866017299
  0.4999999699999975  0.1759623612583185  0.4538341133982701
 -0.0000000000000000  0.6759623312583165  0.4538341133982701
 
  0.00000000E+00  0.00000000E+00  0.00000000E+00
  0.00000000E+00  0.00000000E+00  0.00000000E+00
  0.00000000E+00  0.00000000E+00  0.00000000E+00
  0.00000000E+00  0.00000000E+00  0.00000000E+00
  0.00000000E+00  0.00000000E+00  0.00000000E+00
  0.00000000E+00  0.00000000E+00  0.00000000E+00
  0.00000000E+00  0.00000000E+00  0.00000000E+00
  0.00000000E+00  0.00000000E+00  0.00000000E+00
  0.00000000E+00  0.00000000E+00  0.00000000E+00
  0.00000000E+00  0.00000000E+00  0.00000000E+00
