Ti(OH2)                                 
   1.00000000000000     
     3.2935424207645885    0.0000000000000000    0.0000000000000000
     0.0000000000000000    5.7795545942105973    0.0000000000000000
     0.0000000000000000    0.0000000000000000   20.0000000000000000
   Ti   H    O 
     2     4     4
Direct
 -0.0000000000000000  0.0000000000000000  0.5000000000000000
  0.5000000000000000  0.5000000000000000  0.5000000000000000
 -0.0000000000000000  0.3485498007782453  0.6037084894963500
  0.5000000000000000  0.8485498307782481  0.6037084894963500
  0.4999999699999975  0.1514501992217545  0.3962914815036510
 -0.0000000000000000  0.6514501692217519  0.3962914815036510
  0.0000000000000000  0.3371706322635915  0.5551481896484256
  0.5000000000000000  0.8371706622635938  0.5551481896484256
  0.4999999699999975  0.1628293677364086  0.4448518103515745
 -0.0000000000000000  0.6628293377364062  0.4448518103515745
 
  0.00000000E+00  0.00000000E+00  0.00000000E+00
  0.00000000E+00  0.00000000E+00  0.00000000E+00
  0.00000000E+00  0.00000000E+00  0.00000000E+00
  0.00000000E+00  0.00000000E+00  0.00000000E+00
  0.00000000E+00  0.00000000E+00  0.00000000E+00
  0.00000000E+00  0.00000000E+00  0.00000000E+00
  0.00000000E+00  0.00000000E+00  0.00000000E+00
  0.00000000E+00  0.00000000E+00  0.00000000E+00
  0.00000000E+00  0.00000000E+00  0.00000000E+00
  0.00000000E+00  0.00000000E+00  0.00000000E+00
