Rh(OH2)                                 
   1.00000000000000     
     3.5800330981116373    0.0000000000000000    0.0000000000000000
     0.0000000000000000    5.6170722330156870    0.0000000000000000
     0.0000000000000000    0.0000000000000000   20.0000000000000000
   Rh   H    O 
     2     4     4
Direct
  0.0000000000000000 -0.0000000000000000  0.5000000000000000
  0.5000000000000000  0.5000000000000000  0.5000000000000000
 -0.0000000000000000  0.3074077068270157  0.5982897786645963
  0.5000000000000000  0.8074077368270184  0.5982897786645963
  0.4999999699999975  0.1925922931729842  0.4017101913354008
 -0.0000000000000000  0.6925922631729816  0.4017101913354008
  0.0000000000000000  0.3232100874450998  0.5499205420045435
  0.5000000000000000  0.8232101174451022  0.5499205420045435
  0.4999999699999975  0.1767899125549002  0.4500794869954556
 -0.0000000000000000  0.6767898825548978  0.4500794869954556
 
  0.00000000E+00  0.00000000E+00  0.00000000E+00
  0.00000000E+00  0.00000000E+00  0.00000000E+00
  0.00000000E+00  0.00000000E+00  0.00000000E+00
  0.00000000E+00  0.00000000E+00  0.00000000E+00
  0.00000000E+00  0.00000000E+00  0.00000000E+00
  0.00000000E+00  0.00000000E+00  0.00000000E+00
  0.00000000E+00  0.00000000E+00  0.00000000E+00
  0.00000000E+00  0.00000000E+00  0.00000000E+00
  0.00000000E+00  0.00000000E+00  0.00000000E+00
  0.00000000E+00  0.00000000E+00  0.00000000E+00
