generated by phonopy
   1.0
    10.7538082655931593    0.0000000000000000    0.0000000000000000
     0.0000000000000000   16.8186710478496622    0.0000000000000000
     0.0000000000000000    0.0000000000000000   20.0000000000000000
Rh H O
  18   36   36
Direct
  0.0000000000000000  0.0000000000000000  0.5000000000000000
  0.3333333333333333  0.0000000000000000  0.5000000000000000
  0.6666666666666666  0.0000000000000000  0.5000000000000000
  0.0000000000000000  0.3333333333333333  0.5000000000000000
  0.3333333333333333  0.3333333333333333  0.5000000000000000
  0.6666666666666666  0.3333333333333333  0.5000000000000000
  0.0000000000000000  0.6666666666666666  0.5000000000000000
  0.3333333333333333  0.6666666666666666  0.5000000000000000
  0.6666666666666666  0.6666666666666666  0.5000000000000000
  0.1666666666666667  0.1666666666666667  0.5000000000000000
  0.5000000000000000  0.1666666666666667  0.5000000000000000
  0.8333333333333333  0.1666666666666667  0.5000000000000000
  0.1666666666666667  0.5000000000000000  0.5000000000000000
  0.5000000000000000  0.5000000000000000  0.5000000000000000
  0.8333333333333333  0.5000000000000000  0.5000000000000000
  0.1666666666666667  0.8333333333333333  0.5000000000000000
  0.5000000000000000  0.8333333333333333  0.5000000000000000
  0.8333333333333333  0.8333333333333333  0.5000000000000000
  0.0000000000000000  0.1024900800938373  0.5983320507279942
  0.3333333333333333  0.1024900800938373  0.5983320507279942
  0.6666666666666666  0.1024900800938373  0.5983320507279942
  0.0000000000000000  0.4358234134271706  0.5983320507279942
  0.3333333333333333  0.4358234134271706  0.5983320507279942
  0.6666666666666666  0.4358234134271706  0.5983320507279942
  0.0000000000000000  0.7691567467605039  0.5983320507279942
  0.3333333333333333  0.7691567467605039  0.5983320507279942
  0.6666666666666666  0.7691567467605039  0.5983320507279942
  0.1666666666666667  0.2691567567605047  0.5983320507279942
  0.5000000000000000  0.2691567567605047  0.5983320507279942
  0.8333333333333333  0.2691567567605047  0.5983320507279942
  0.1666666666666667  0.6024900900938380  0.5983320507279942
  0.5000000000000000  0.6024900900938380  0.5983320507279942
  0.8333333333333333  0.6024900900938380  0.5983320507279942
  0.1666666666666667  0.9358234234271713  0.5983320507279942
  0.5000000000000000  0.9358234234271713  0.5983320507279942
  0.8333333333333333  0.9358234234271713  0.5983320507279942
  0.1666666566666658  0.0641765865728294  0.4016679192720031
  0.4999999899999992  0.0641765865728294  0.4016679192720031
  0.8333333233333324  0.0641765865728294  0.4016679192720031
  0.1666666566666658  0.3975099199061627  0.4016679192720031
  0.4999999899999992  0.3975099199061627  0.4016679192720031
  0.8333333233333324  0.3975099199061627  0.4016679192720031
  0.1666666566666658  0.7308432532394962  0.4016679192720031
  0.4999999899999992  0.7308432532394962  0.4016679192720031
  0.8333333233333324  0.7308432532394962  0.4016679192720031
  0.0000000000000000  0.2308432432394953  0.4016679192720031
  0.3333333333333333  0.2308432432394953  0.4016679192720031
  0.6666666666666666  0.2308432432394953  0.4016679192720031
  0.0000000000000000  0.5641765765728286  0.4016679192720031
  0.3333333333333333  0.5641765765728286  0.4016679192720031
  0.6666666666666666  0.5641765765728286  0.4016679192720031
  0.0000000000000000  0.8975099099061620  0.4016679192720031
  0.3333333333333333  0.8975099099061620  0.4016679192720031
  0.6666666666666666  0.8975099099061620  0.4016679192720031
  0.0000000000000000  0.1079083208100310  0.5499554065308067
  0.3333333333333333  0.1079083208100310  0.5499554065308067
  0.6666666666666666  0.1079083208100310  0.5499554065308067
  0.0000000000000000  0.4412416541433644  0.5499554065308067
  0.3333333333333333  0.4412416541433644  0.5499554065308067
  0.6666666666666666  0.4412416541433644  0.5499554065308067
  0.0000000000000000  0.7745749874766976  0.5499554065308067
  0.3333333333333333  0.7745749874766976  0.5499554065308067
  0.6666666666666666  0.7745749874766976  0.5499554065308067
  0.1666666666666667  0.2745749974766984  0.5499554065308067
  0.5000000000000000  0.2745749974766984  0.5499554065308067
  0.8333333333333333  0.2745749974766984  0.5499554065308067
  0.1666666666666667  0.6079083308100317  0.5499554065308067
  0.5000000000000000  0.6079083308100317  0.5499554065308067
  0.8333333333333333  0.6079083308100317  0.5499554065308067
  0.1666666666666667  0.9412416641433651  0.5499554065308067
  0.5000000000000000  0.9412416641433651  0.5499554065308067
  0.8333333333333333  0.9412416641433651  0.5499554065308067
  0.1666666566666658  0.0587583458566357  0.4500446224691923
  0.4999999899999992  0.0587583458566357  0.4500446224691923
  0.8333333233333324  0.0587583458566357  0.4500446224691923
  0.1666666566666658  0.3920916791899690  0.4500446224691923
  0.4999999899999992  0.3920916791899690  0.4500446224691923
  0.8333333233333324  0.3920916791899690  0.4500446224691923
  0.1666666566666658  0.7254250125233024  0.4500446224691923
  0.4999999899999992  0.7254250125233024  0.4500446224691923
  0.8333333233333324  0.7254250125233024  0.4500446224691923
  0.0000000000000000  0.2254250025233016  0.4500446224691923
  0.3333333333333333  0.2254250025233016  0.4500446224691923
  0.6666666666666666  0.2254250025233016  0.4500446224691923
  0.0000000000000000  0.5587583358566348  0.4500446224691923
  0.3333333333333333  0.5587583358566348  0.4500446224691923
  0.6666666666666666  0.5587583358566348  0.4500446224691923
  0.0000000000000000  0.8920916691899682  0.4500446224691923
  0.3333333333333333  0.8920916691899682  0.4500446224691923
  0.6666666666666666  0.8920916691899682  0.4500446224691923
