Bi2O2Se411143                           
   1.00000000000000     
       4.018552266297462       0.000000000000000       0.000000000000000
      -0.000000000000000       4.018552266297462      -0.000000000000000
      -0.000000000000001       0.000000000000001      12.252639437011355
   Bi   O    Se
4 4 2
Direct
     0.0000000000000000   0.0000000000000001   0.6460660000000004
    0.5000000000000000   0.5000000000000000   1.1460660000000005
    0.0000000000000000   0.0000000000000001  -0.6460660000000005
    0.5000000000000000   0.5000000000000000  -0.1460660000000005
   -0.4999999999999999   0.0000000000000000   0.2499999999999999
   -0.0000000000000000  -0.4999999999999999   0.2499999999999999
    0.4999999999999999   0.0000000000000000  -0.2500000000000000
   -0.0000000000000000  -0.4999999999999998  -0.2500000000000000
    0.0000000000000000   0.0000000000000000   0.0000000000000000
    0.4999999999999999   0.4999999999999999   0.4999999999999999
