Tbeta                                   
   1.00000000000000     
    11.0332563417364060    0.0000000000000000    0.0000000000000000
     0.0000000000000000    5.0617513461827679    0.0000000000000000
     0.0000000000000000    0.0000000000000000   15.0000000000000000
   P    C 
     8     8
Direct
  0.1791326745573087  0.1528069780114834  0.9437007406839655
  0.8208673254426913  0.8471929919885142  0.0562992593160345
  0.3208673254426913  0.6528070080114858  0.0562992593160345
  0.6791326745573087  0.3471930219885095  0.9437007406839655
  0.3177033370702986  0.0919915166800038  0.0573245377983866
  0.6822966629297014  0.9080084613200015  0.9426754542016127
  0.1822966629297014  0.5919915386799985  0.9426754542016127
  0.8177033370702986  0.4080084913199968  0.0573245377983866
  0.4690253826890469  0.1226122269116630  0.0074532622986396
  0.5309746173109531  0.8773877730883370  0.9925467417013607
  0.0309746173109531  0.6226122269116630  0.9925467417013607
  0.9690253826890469  0.3773877730883370  0.0074532622986396
  0.4729213131922521  0.6273736626322659  0.0059264785641133
  0.5270787158077468  0.3726263373677341  0.9940735154358933
  0.0270786868077479  0.1273736626322659  0.9940735154358933
  0.9729212841922532  0.8726263373677341  0.0059264785641133
 
  0.00000000E+00  0.00000000E+00  0.00000000E+00
  0.00000000E+00  0.00000000E+00  0.00000000E+00
  0.00000000E+00  0.00000000E+00  0.00000000E+00
  0.00000000E+00  0.00000000E+00  0.00000000E+00
  0.00000000E+00  0.00000000E+00  0.00000000E+00
  0.00000000E+00  0.00000000E+00  0.00000000E+00
  0.00000000E+00  0.00000000E+00  0.00000000E+00
  0.00000000E+00  0.00000000E+00  0.00000000E+00
  0.00000000E+00  0.00000000E+00  0.00000000E+00
  0.00000000E+00  0.00000000E+00  0.00000000E+00
  0.00000000E+00  0.00000000E+00  0.00000000E+00
  0.00000000E+00  0.00000000E+00  0.00000000E+00
  0.00000000E+00  0.00000000E+00  0.00000000E+00
  0.00000000E+00  0.00000000E+00  0.00000000E+00
  0.00000000E+00  0.00000000E+00  0.00000000E+00
  0.00000000E+00  0.00000000E+00  0.00000000E+00
