Tbeta                                   
   1.00000000000000     
    13.6602221373879313    0.0000000000000000    0.0000000000000000
     0.0000000000000000    4.9496401335032472    0.0000000000000000
     0.0000000000000000    0.0000000000000000   15.0000000000000000
   P    C 
     8     8
Direct
  0.1498704774229158  0.1549115396154322  0.9590793695392175
  0.8501295225770842  0.8450884303845654  0.0409206304607825
  0.3501295225770842  0.6549115696154346  0.0409206304607825
  0.6498704774229158  0.3450884603845608  0.9590793695392175
  0.3508953321199621  0.0821855401102940  0.0530780356401608
  0.6491046678800378  0.9178144378897113  0.9469219563598384
  0.1491046678800379  0.5821855621102887  0.9469219563598384
  0.8508953321199622  0.4178144678897067  0.0530780356401608
  0.4740701573991636  0.1200176911499043  0.0095608440531646
  0.5259298426008363  0.8799823088500957  0.9904391599468357
  0.0259298426008364  0.6200176911499043  0.9904391599468357
  0.9740701573991637  0.3799823088500957  0.0095608440531646
  0.4772272605121507  0.6279774796590911  0.0043455609544998
  0.5227727684878481  0.3720225203409159  0.9956544330455068
  0.0227727394878494  0.1279774796590841  0.9956544330455068
  0.9772272315121519  0.8720225203409089  0.0043455609544998
 
  0.00000000E+00  0.00000000E+00  0.00000000E+00
  0.00000000E+00  0.00000000E+00  0.00000000E+00
  0.00000000E+00  0.00000000E+00  0.00000000E+00
  0.00000000E+00  0.00000000E+00  0.00000000E+00
  0.00000000E+00  0.00000000E+00  0.00000000E+00
  0.00000000E+00  0.00000000E+00  0.00000000E+00
  0.00000000E+00  0.00000000E+00  0.00000000E+00
  0.00000000E+00  0.00000000E+00  0.00000000E+00
  0.00000000E+00  0.00000000E+00  0.00000000E+00
  0.00000000E+00  0.00000000E+00  0.00000000E+00
  0.00000000E+00  0.00000000E+00  0.00000000E+00
  0.00000000E+00  0.00000000E+00  0.00000000E+00
  0.00000000E+00  0.00000000E+00  0.00000000E+00
  0.00000000E+00  0.00000000E+00  0.00000000E+00
  0.00000000E+00  0.00000000E+00  0.00000000E+00
  0.00000000E+00  0.00000000E+00  0.00000000E+00
