Tbeta                                   
   1.00000000000000     
    12.0840426599970154    0.0000000000000000    0.0000000000000000
     0.0000000000000000    5.0328367044871971    0.0000000000000000
     0.0000000000000000    0.0000000000000000   15.0000000000000000
   P    C 
     8     8
Direct
  0.1660188900729054  0.1567114239552510  0.9481207338131483
  0.8339811099270946  0.8432885460447466  0.0518792661868517
  0.3339811099270946  0.6567114539552534  0.0518792661868517
  0.6660188900729054  0.3432885760447419  0.9481207338131483
  0.3316479776482453  0.0882791928587636  0.0531984343812439
  0.6683520223517547  0.9117207851412417  0.9468015576187554
  0.1683520223517547  0.5882792148587583  0.9468015576187554
  0.8316479776482453  0.4117208151412370  0.0531984343812439
  0.4706103294357646  0.1221729183178297  0.0074259053092831
  0.5293896705642354  0.8778270816821703  0.9925740986907172
  0.0293896705642354  0.6221729183178297  0.9925740986907172
  0.9706103294357646  0.3778270816821703  0.0074259053092831
  0.4741810604282364  0.6273708477218420  0.0051319584396481
  0.5258189685717625  0.3726291522781580  0.9948680355603585
  0.0258189395717636  0.1273708477218420  0.9948680355603585
  0.9741810314282375  0.8726291522781580  0.0051319584396481
 
  0.00000000E+00  0.00000000E+00  0.00000000E+00
  0.00000000E+00  0.00000000E+00  0.00000000E+00
  0.00000000E+00  0.00000000E+00  0.00000000E+00
  0.00000000E+00  0.00000000E+00  0.00000000E+00
  0.00000000E+00  0.00000000E+00  0.00000000E+00
  0.00000000E+00  0.00000000E+00  0.00000000E+00
  0.00000000E+00  0.00000000E+00  0.00000000E+00
  0.00000000E+00  0.00000000E+00  0.00000000E+00
  0.00000000E+00  0.00000000E+00  0.00000000E+00
  0.00000000E+00  0.00000000E+00  0.00000000E+00
  0.00000000E+00  0.00000000E+00  0.00000000E+00
  0.00000000E+00  0.00000000E+00  0.00000000E+00
  0.00000000E+00  0.00000000E+00  0.00000000E+00
  0.00000000E+00  0.00000000E+00  0.00000000E+00
  0.00000000E+00  0.00000000E+00  0.00000000E+00
  0.00000000E+00  0.00000000E+00  0.00000000E+00
