Tbeta                                   
   1.00000000000000     
    13.1348289782576266    0.0000000000000000    0.0000000000000000
     0.0000000000000000    4.9974587436145059    0.0000000000000000
     0.0000000000000000    0.0000000000000000   15.0000000000000000
   P    C 
     8     8
Direct
  0.1530526200625530  0.1556392079285018  0.9525759075260893
  0.8469473799374470  0.8443607620714957  0.0474240924739107
  0.3469473799374470  0.6556392379285043  0.0474240924739107
  0.6530526200625530  0.3443607920714911  0.9525759075260893
  0.3464916857196272  0.0829361952443577  0.0550494480960779
  0.6535083142803728  0.9170637827556476  0.9449505439039214
  0.1535083142803728  0.5829362172443524  0.9449505439039214
  0.8464916857196272  0.4170638127556430  0.0550494480960779
  0.4729090802935190  0.1204292428226665  0.0094311991458369
  0.5270909197064810  0.8795707571773335  0.9905688048541634
  0.0270909197064810  0.6204292428226665  0.9905688048541634
  0.9729090802935190  0.3795707571773335  0.0094311991458369
  0.4764310155204612  0.6278688047078020  0.0051889492190966
  0.5235690134795377  0.3721311952922051  0.9948110447809100
  0.0235689844795388  0.1278688047077949  0.9948110447809100
  0.9764309865204623  0.8721311952921980  0.0051889492190966
 
  0.00000000E+00  0.00000000E+00  0.00000000E+00
  0.00000000E+00  0.00000000E+00  0.00000000E+00
  0.00000000E+00  0.00000000E+00  0.00000000E+00
  0.00000000E+00  0.00000000E+00  0.00000000E+00
  0.00000000E+00  0.00000000E+00  0.00000000E+00
  0.00000000E+00  0.00000000E+00  0.00000000E+00
  0.00000000E+00  0.00000000E+00  0.00000000E+00
  0.00000000E+00  0.00000000E+00  0.00000000E+00
  0.00000000E+00  0.00000000E+00  0.00000000E+00
  0.00000000E+00  0.00000000E+00  0.00000000E+00
  0.00000000E+00  0.00000000E+00  0.00000000E+00
  0.00000000E+00  0.00000000E+00  0.00000000E+00
  0.00000000E+00  0.00000000E+00  0.00000000E+00
  0.00000000E+00  0.00000000E+00  0.00000000E+00
  0.00000000E+00  0.00000000E+00  0.00000000E+00
  0.00000000E+00  0.00000000E+00  0.00000000E+00
