Tbeta                                   
   1.00000000000000     
    12.6094358191273219    0.0000000000000000    0.0000000000000000
     0.0000000000000000    5.0290417818046835    0.0000000000000000
     0.0000000000000000    0.0000000000000000   15.0000000000000000
   P    C 
     8     8
Direct
  0.1589331651539894  0.1575873400693055  0.9495923352147955
  0.8410668348460106  0.8424126299306920  0.0504076647852045
  0.3410668348460106  0.6575873700693080  0.0504076647852045
  0.6589331651539894  0.3424126599306874  0.9495923352147955
  0.3387612940653213  0.0863732598414799  0.0516883109890784
  0.6612387059346787  0.9136267181585254  0.9483116810109209
  0.1612387059346787  0.5863732818414746  0.9483116810109209
  0.8387612940653213  0.4136267481585207  0.0516883109890784
  0.4715688052434004  0.1216807794434374  0.0078220262835842
  0.5284311947565996  0.8783192205565626  0.9921779777164161
  0.0284311947565996  0.6216807794434374  0.9921779777164161
  0.9715688052434004  0.3783192205565626  0.0078220262835842
  0.4752933427238304  0.6275392739293579  0.0053845401970847
  0.5247066862761685  0.3724607260706421  0.9946154538029219
  0.0247066572761696  0.1275392739293579  0.9946154538029219
  0.9752933137238315  0.8724607260706421  0.0053845401970847
 
  0.00000000E+00  0.00000000E+00  0.00000000E+00
  0.00000000E+00  0.00000000E+00  0.00000000E+00
  0.00000000E+00  0.00000000E+00  0.00000000E+00
  0.00000000E+00  0.00000000E+00  0.00000000E+00
  0.00000000E+00  0.00000000E+00  0.00000000E+00
  0.00000000E+00  0.00000000E+00  0.00000000E+00
  0.00000000E+00  0.00000000E+00  0.00000000E+00
  0.00000000E+00  0.00000000E+00  0.00000000E+00
  0.00000000E+00  0.00000000E+00  0.00000000E+00
  0.00000000E+00  0.00000000E+00  0.00000000E+00
  0.00000000E+00  0.00000000E+00  0.00000000E+00
  0.00000000E+00  0.00000000E+00  0.00000000E+00
  0.00000000E+00  0.00000000E+00  0.00000000E+00
  0.00000000E+00  0.00000000E+00  0.00000000E+00
  0.00000000E+00  0.00000000E+00  0.00000000E+00
  0.00000000E+00  0.00000000E+00  0.00000000E+00
