Tbeta                                   
   1.00000000000000     
    28.3790269347607698    0.0000000000000000    0.0000000000000000
     0.0000000000000000    5.0602552078039738    0.0000000000000000
     0.0000000000000000    0.0000000000000000   28.3790269347607698
   P    C 
    32    32
Direct
  0.4334746395183957  0.1507169080829983  0.2960375907844638
  0.3107654360163150  0.8482461848470138  0.4952456544898982
  0.4722979374766981  0.6517536729222549  0.3661685075171349
  0.3329026910489011  0.3492829683418375  0.4182033498698017
  0.4731972747041747  0.0936939148770916  0.3647713197873696
  0.3316519318614661  0.9066985942530056  0.4187154750070291
  0.4329524757768232  0.5933015140181447  0.2972842173786606
  0.3123892447034567  0.4063062245628166  0.4948937945524475
  0.1754030602821585  0.1507169080829983  0.4334746395183957
  0.9761949965767167  0.8482461848470138  0.3107654360163150
  0.1052721435494874  0.6517536729222549  0.4722979374766981
  0.0532373011968203  0.3492829683418375  0.3329026910489011
  0.1066693312792524  0.0936939148770916  0.4731972747041747
  0.0527251760595859  0.9066985942530056  0.3316519318614661
  0.1741564336879615  0.5933015140181447  0.4329524757768232
  0.9765468565141751  0.4063062245628166  0.3123892447034567
  0.0379660115482265  0.1507169080829983  0.1754030602821585
  0.1606752150503001  0.8482461848470138  0.9761949965767167
 -0.0008572864100759  0.6517536729222549  0.1052721435494874
  0.1385379600177209  0.3492829683418375  0.0532373011968203
  0.9982433763624475  0.0936939148770916  0.1066693312792524
  0.1397887192051489  0.9066985942530056  0.0527251760595859
  0.0384881752897992  0.5933015140181447  0.1741564336879615
  0.1590514063631585  0.4063062245628166  0.9765468565141751
  0.2960375907844638  0.1507169080829983  0.0379660115482265
  0.4952456544898982  0.8482461848470138  0.1606752150503001
  0.3661685075171349  0.6517536729222549 -0.0008572864100759
  0.4182033498698017  0.3492829683418375  0.1385379600177209
  0.3647713197873696  0.0936939148770916  0.9982433763624475
  0.4187154750070291  0.9066985942530056  0.1397887192051489
  0.2972842173786606  0.5933015140181447  0.0384881752897992
  0.4948937945524475  0.4063062245628166  0.1590514063631585
  0.4176572257153730  0.1226234884484264  0.3981896465742056
  0.3946415940768421  0.8775774561822438  0.4083448592962325
  0.4701592205718144  0.6224225971025401  0.2454102829582927
  0.2494858734579765  0.3773765510313909  0.4792524631826448
  0.4161472609387797  0.6281647335720874  0.3988308765885484
  0.3963835205857657  0.3733276154738812  0.4077651148879630
  0.4709809871387273  0.1266723254230139  0.2437685655893235
  0.2479647824963616  0.8718352588612540  0.4786381698093616
  0.0732510044924167  0.1226234884484264  0.4176572257153730
  0.0630957917703897  0.8775774561822438  0.3946415940768421
  0.2260303681083295  0.6224225971025401  0.4701592205718144
  0.9921881878839774  0.3773765510313909  0.2494858734579765
  0.0726097744780739  0.6281647335720874  0.4161472609387797
  0.0636755361786522  0.3733276154738812  0.3963835205857657
  0.2276720854772987  0.1266723254230139  0.4709809871387273
  0.9928024812572612  0.8718352588612540  0.2479647824963616
  0.0537834253512492  0.1226234884484264  0.0732510044924167
  0.0767990569897802  0.8775774561822438  0.0630957917703897
  0.0012814304948006  0.6224225971025401  0.2260303681083295
  0.2219547776086457  0.3773765510313909  0.9921881878839774
  0.0552933901278424  0.6281647335720874  0.0726097744780739
  0.0750571304808566  0.3733276154738812  0.0636755361786522
  0.0004596639278949  0.1266723254230139  0.2276720854772987
  0.2234758685702606  0.8718352588612540  0.9928024812572612
  0.3981896465742056  0.1226234884484264  0.0537834253512492
  0.4083448592962325  0.8775774561822438  0.0767990569897802
  0.2454102829582927  0.6224225971025401  0.0012814304948006
  0.4792524631826448  0.3773765510313909  0.2219547776086457
  0.3988308765885484  0.6281647335720874  0.0552933901278424
  0.4077651148879630  0.3733276154738812  0.0750571304808566
  0.2437685655893235  0.1266723254230139  0.0004596639278949
  0.4786381698093616  0.8718352588612540  0.2234758685702606
 
  0.00000000E+00  0.00000000E+00  0.00000000E+00
  0.00000000E+00  0.00000000E+00  0.00000000E+00
  0.00000000E+00  0.00000000E+00  0.00000000E+00
  0.00000000E+00  0.00000000E+00  0.00000000E+00
  0.00000000E+00  0.00000000E+00  0.00000000E+00
  0.00000000E+00  0.00000000E+00  0.00000000E+00
  0.00000000E+00  0.00000000E+00  0.00000000E+00
  0.00000000E+00  0.00000000E+00  0.00000000E+00
  0.00000000E+00  0.00000000E+00  0.00000000E+00
  0.00000000E+00  0.00000000E+00  0.00000000E+00
  0.00000000E+00  0.00000000E+00  0.00000000E+00
  0.00000000E+00  0.00000000E+00  0.00000000E+00
  0.00000000E+00  0.00000000E+00  0.00000000E+00
  0.00000000E+00  0.00000000E+00  0.00000000E+00
  0.00000000E+00  0.00000000E+00  0.00000000E+00
  0.00000000E+00  0.00000000E+00  0.00000000E+00
  0.00000000E+00  0.00000000E+00  0.00000000E+00
  0.00000000E+00  0.00000000E+00  0.00000000E+00
  0.00000000E+00  0.00000000E+00  0.00000000E+00
  0.00000000E+00  0.00000000E+00  0.00000000E+00
  0.00000000E+00  0.00000000E+00  0.00000000E+00
  0.00000000E+00  0.00000000E+00  0.00000000E+00
  0.00000000E+00  0.00000000E+00  0.00000000E+00
  0.00000000E+00  0.00000000E+00  0.00000000E+00
  0.00000000E+00  0.00000000E+00  0.00000000E+00
  0.00000000E+00  0.00000000E+00  0.00000000E+00
  0.00000000E+00  0.00000000E+00  0.00000000E+00
  0.00000000E+00  0.00000000E+00  0.00000000E+00
  0.00000000E+00  0.00000000E+00  0.00000000E+00
  0.00000000E+00  0.00000000E+00  0.00000000E+00
  0.00000000E+00  0.00000000E+00  0.00000000E+00
  0.00000000E+00  0.00000000E+00  0.00000000E+00
  0.00000000E+00  0.00000000E+00  0.00000000E+00
  0.00000000E+00  0.00000000E+00  0.00000000E+00
  0.00000000E+00  0.00000000E+00  0.00000000E+00
  0.00000000E+00  0.00000000E+00  0.00000000E+00
  0.00000000E+00  0.00000000E+00  0.00000000E+00
  0.00000000E+00  0.00000000E+00  0.00000000E+00
  0.00000000E+00  0.00000000E+00  0.00000000E+00
  0.00000000E+00  0.00000000E+00  0.00000000E+00
  0.00000000E+00  0.00000000E+00  0.00000000E+00
  0.00000000E+00  0.00000000E+00  0.00000000E+00
  0.00000000E+00  0.00000000E+00  0.00000000E+00
  0.00000000E+00  0.00000000E+00  0.00000000E+00
  0.00000000E+00  0.00000000E+00  0.00000000E+00
  0.00000000E+00  0.00000000E+00  0.00000000E+00
  0.00000000E+00  0.00000000E+00  0.00000000E+00
  0.00000000E+00  0.00000000E+00  0.00000000E+00
  0.00000000E+00  0.00000000E+00  0.00000000E+00
  0.00000000E+00  0.00000000E+00  0.00000000E+00
  0.00000000E+00  0.00000000E+00  0.00000000E+00
  0.00000000E+00  0.00000000E+00  0.00000000E+00
  0.00000000E+00  0.00000000E+00  0.00000000E+00
  0.00000000E+00  0.00000000E+00  0.00000000E+00
  0.00000000E+00  0.00000000E+00  0.00000000E+00
  0.00000000E+00  0.00000000E+00  0.00000000E+00
  0.00000000E+00  0.00000000E+00  0.00000000E+00
  0.00000000E+00  0.00000000E+00  0.00000000E+00
  0.00000000E+00  0.00000000E+00  0.00000000E+00
  0.00000000E+00  0.00000000E+00  0.00000000E+00
  0.00000000E+00  0.00000000E+00  0.00000000E+00
  0.00000000E+00  0.00000000E+00  0.00000000E+00
  0.00000000E+00  0.00000000E+00  0.00000000E+00
  0.00000000E+00  0.00000000E+00  0.00000000E+00
