Fe(OH2)                                 
   1.00000000000000     
     3.6589558698021221    0.0000000000000000    0.0000000000000000
     0.0000000000000000    5.7648764341833711    0.0000000000000000
     0.0000000000000000    0.0000000000000000   20.0000000000000000
   Fe   H    O 
     2     4     4
Direct
 -0.0000000000000000  0.0000000000000000  0.5000000000000000
  0.5000000000000000  0.5000000000000000  0.5000000000000000
 -0.0000000000000000  0.3221445205640548  0.5932363041811325
  0.5000000000000000  0.8221445505640573  0.5932363041811325
  0.4999999699999975  0.1778554794359453  0.4067636958188676
 -0.0000000000000000  0.6778554494359427  0.4067636958188676
  0.0000000000000000  0.3275521962360410  0.5444705473582154
  0.5000000000000000  0.8275522262360434  0.5444705473582154
  0.4999999699999975  0.1724478037639592  0.4555294226417819
 -0.0000000000000000  0.6724477737639566  0.4555294226417819
 
  0.00000000E+00  0.00000000E+00  0.00000000E+00
  0.00000000E+00  0.00000000E+00  0.00000000E+00
  0.00000000E+00  0.00000000E+00  0.00000000E+00
  0.00000000E+00  0.00000000E+00  0.00000000E+00
  0.00000000E+00  0.00000000E+00  0.00000000E+00
  0.00000000E+00  0.00000000E+00  0.00000000E+00
  0.00000000E+00  0.00000000E+00  0.00000000E+00
  0.00000000E+00  0.00000000E+00  0.00000000E+00
  0.00000000E+00  0.00000000E+00  0.00000000E+00
  0.00000000E+00  0.00000000E+00  0.00000000E+00
