                                        
   1.00000000000000     
     8.5445888958642087    0.0000000000000000    0.0000000000000000
     0.0000000000000000    2.9029459451994826    0.0000000000000000
     0.0000000000000000    0.0000000000000000   20.0000000000000000
   P    C 
     4     4
Direct
  0.0060832959225579  0.0000000000000000  0.0906266367126634
  0.7540338523474404  0.5000000000000000  0.1797364998916464
  0.5060844785925127  0.0000000000000000  0.0930178673020450
  0.2540344101315952  0.5000000000000000  0.0039085310121436
  0.6483496804117124  0.0000000000000000  0.1505562108325549
  0.9216316544401693  0.5000000000000000  0.1179115743933465
  0.1483512802053468  0.0000000000000000  0.0330892462867070
  0.4216313929486617  0.5000000000000000  0.0657334445688775
 
  0.00000000E+00  0.00000000E+00  0.00000000E+00
  0.00000000E+00  0.00000000E+00  0.00000000E+00
  0.00000000E+00  0.00000000E+00  0.00000000E+00
  0.00000000E+00  0.00000000E+00  0.00000000E+00
  0.00000000E+00  0.00000000E+00  0.00000000E+00
  0.00000000E+00  0.00000000E+00  0.00000000E+00
  0.00000000E+00  0.00000000E+00  0.00000000E+00
  0.00000000E+00  0.00000000E+00  0.00000000E+00
