
1.0
        8.4099998474         0.0000000000         0.0000000000
        0.0000000000         2.9400000572         0.0000000000
        0.0000000000         0.0000000000        20.0000000000
    P    C
    4    4
Direct
     0.000000000         0.000000000         0.093730003
     0.755200028         0.500000000         0.183640003
     0.500000000         0.000000000         0.089910001
     0.255199999         0.500000000         0.000000000
     0.653140008         0.000000000         0.146160007
     0.921760023         0.500000000         0.122469999
     0.153139994         0.000000000         0.037489999
     0.421759993         0.500000000         0.061179999
