Co(OH2)                                 
   1.00000000000000     
     3.1633143851957564    0.0000000000000000    0.0000000000000000
     0.0000000000000000    5.5733255162682775    0.0000000000000000
     0.0000000000000000    0.0000000000000000   20.0000000000000000
   Co   H    O 
     2     4     4
Direct
  0.0000000000000000 -0.0000000000000000  0.5000000000000000
  0.5000000000000000  0.5000000000000000  0.5000000000000000
 -0.0000000000000000  0.3457604085480008  0.6003447767365625
  0.5000000000000000  0.8457604385480036  0.6003447767365625
  0.4999999699999975  0.1542395914519990  0.3996552232634374
 -0.0000000000000000  0.6542395614519964  0.3996552232634374
  0.0000000000000000  0.3373260661564441  0.5519301756878515
  0.5000000000000000  0.8373260961564474  0.5519301756878515
  0.4999999699999975  0.1626739338435557  0.4480698543121437
  0.0000000000000000  0.6626739038435526  0.4480698543121437
 
  0.00000000E+00  0.00000000E+00  0.00000000E+00
  0.00000000E+00  0.00000000E+00  0.00000000E+00
  0.00000000E+00  0.00000000E+00  0.00000000E+00
  0.00000000E+00  0.00000000E+00  0.00000000E+00
  0.00000000E+00  0.00000000E+00  0.00000000E+00
  0.00000000E+00  0.00000000E+00  0.00000000E+00
  0.00000000E+00  0.00000000E+00  0.00000000E+00
  0.00000000E+00  0.00000000E+00  0.00000000E+00
  0.00000000E+00  0.00000000E+00  0.00000000E+00
  0.00000000E+00  0.00000000E+00  0.00000000E+00
