Ni(OH2)                                 
   1.00000000000000     
     3.1292440135493775    0.0000000000000000    0.0000000000000000
     0.0000000000000000    5.4303179885650774    0.0000000000000000
     0.0000000000000000    0.0000000000000000   20.0000000000000000
   Ni   H    O 
     2     4     4
Direct
  0.0000000000000000  0.0000000000000000  0.5000000000000000
  0.5000000000000000  0.5000000000000000  0.5000000000000000
 -0.0000000000000000  0.3334736157686788  0.5988416229798446
  0.5000000000000000  0.8334736457686814  0.5988416229798446
  0.4999999699999975  0.1665263842313212  0.4011584060201543
  0.0000000000000000  0.6665263542313186  0.4011584060201543
 -0.0000000000000000  0.3327587977117341  0.5504231297430108
  0.5000000000000000  0.8327588277117367  0.5504231297430108
  0.4999999699999975  0.1672412022882658  0.4495768992569880
  0.0000000000000000  0.6672411722882633  0.4495768992569880
 
  0.00000000E+00  0.00000000E+00  0.00000000E+00
  0.00000000E+00  0.00000000E+00  0.00000000E+00
  0.00000000E+00  0.00000000E+00  0.00000000E+00
  0.00000000E+00  0.00000000E+00  0.00000000E+00
  0.00000000E+00  0.00000000E+00  0.00000000E+00
  0.00000000E+00  0.00000000E+00  0.00000000E+00
  0.00000000E+00  0.00000000E+00  0.00000000E+00
  0.00000000E+00  0.00000000E+00  0.00000000E+00
  0.00000000E+00  0.00000000E+00  0.00000000E+00
  0.00000000E+00  0.00000000E+00  0.00000000E+00
