Fe(OH2)                                 
   1.00000000000000     
     3.3507105214879913    0.0000000000000000    0.0000000000000000
     0.0000000000000000    5.8036027941982633    0.0000000000000000
     0.0000000000000000    0.0000000000000000   20.0000000000000000
   Fe   H    O 
     2     4     4
Direct
 -0.0000000000000000 -0.0000000000000000  0.5000000000000000
  0.5000000000000000  0.5000000000000000  0.5000000000000000
 -0.0000000043041889  0.3333333075165121  0.5959372267755836
  0.4999999956958112  0.8333333375165145  0.5959372267755836
  0.4999999743041864  0.1666666924834883  0.4040627732244165
  0.0000000043041889  0.6666666624834855  0.4040627732244165
 -0.0000000097870401  0.3333333088858795  0.5474411558573627
  0.4999999902129600  0.8333333388858819  0.5474411558573627
  0.4999999797870375  0.1666666911141205  0.4525588141426349
  0.0000000097870401  0.6666666611141181  0.4525588141426349
 
  0.00000000E+00  0.00000000E+00  0.00000000E+00
  0.00000000E+00  0.00000000E+00  0.00000000E+00
  0.00000000E+00  0.00000000E+00  0.00000000E+00
  0.00000000E+00  0.00000000E+00  0.00000000E+00
  0.00000000E+00  0.00000000E+00  0.00000000E+00
  0.00000000E+00  0.00000000E+00  0.00000000E+00
  0.00000000E+00  0.00000000E+00  0.00000000E+00
  0.00000000E+00  0.00000000E+00  0.00000000E+00
  0.00000000E+00  0.00000000E+00  0.00000000E+00
  0.00000000E+00  0.00000000E+00  0.00000000E+00
