Cr(OH2)                                 
   1.00000000000000     
     3.2894015330245159    0.0000000000000000    0.0000000000000000
     0.0000000000000000    5.4747082415154731    0.0000000000000000
     0.0000000000000000    0.0000000000000000   20.0000000000000000
   Cr   H    O 
     2     4     4
Direct
 -0.0000000000000000  0.0000000000000000  0.5000000000000000
  0.5000000000000000  0.5000000000000000  0.5000000000000000
 -0.0000000000000000  0.2987026176251217  0.6045051833028720
  0.5000000000000000  0.7987026476251240  0.6045051833028720
  0.4999999699999975  0.2012973823748785  0.3954948166971279
  0.0000000000000000  0.7012973523748760  0.3954948166971279
  0.0000000000000000  0.3147428724570120  0.5562264404755418
  0.5000000000000000  0.8147429024570142  0.5562264404755418
  0.4999999699999975  0.1852571275429882  0.4437735895244535
 -0.0000000000000000  0.6852570975429858  0.4437735895244535
 
  0.00000000E+00  0.00000000E+00  0.00000000E+00
  0.00000000E+00  0.00000000E+00  0.00000000E+00
  0.00000000E+00  0.00000000E+00  0.00000000E+00
  0.00000000E+00  0.00000000E+00  0.00000000E+00
  0.00000000E+00  0.00000000E+00  0.00000000E+00
  0.00000000E+00  0.00000000E+00  0.00000000E+00
  0.00000000E+00  0.00000000E+00  0.00000000E+00
  0.00000000E+00  0.00000000E+00  0.00000000E+00
  0.00000000E+00  0.00000000E+00  0.00000000E+00
  0.00000000E+00  0.00000000E+00  0.00000000E+00
