Cu(OH2)                                 
   1.00000000000000     
     3.2571772751250117    0.0000000000000000    0.0000000000000000
     0.0000000000000000    5.2987235363804306    0.0000000000000000
     0.0000000000000000    0.0000000000000000   20.0000000000000000
   Cu   H    O 
     2     4     4
Direct
  0.0000000000000000  0.0000000000000000  0.5000000000000000
  0.5000000000000000  0.5000000000000000  0.5000000000000000
  0.0000000000000000  0.2939156316090953  0.5995266223902403
  0.5000000000000000  0.7939156616090980  0.5995266223902403
  0.4999999699999975  0.2060843683909046  0.4004733776097600
  0.0000000000000000  0.7060843383909019  0.4004733776097600
 -0.0000000000000000  0.3138304219627802  0.5513481611934888
  0.5000000000000000  0.8138304519627826  0.5513481611934888
  0.4999999699999975  0.1861695780372197  0.4486518688065141
  0.0000000000000000  0.6861695480372174  0.4486518688065141
 
  0.00000000E+00  0.00000000E+00  0.00000000E+00
  0.00000000E+00  0.00000000E+00  0.00000000E+00
  0.00000000E+00  0.00000000E+00  0.00000000E+00
  0.00000000E+00  0.00000000E+00  0.00000000E+00
  0.00000000E+00  0.00000000E+00  0.00000000E+00
  0.00000000E+00  0.00000000E+00  0.00000000E+00
  0.00000000E+00  0.00000000E+00  0.00000000E+00
  0.00000000E+00  0.00000000E+00  0.00000000E+00
  0.00000000E+00  0.00000000E+00  0.00000000E+00
  0.00000000E+00  0.00000000E+00  0.00000000E+00
