generated by phonopy
   1.0
     9.8723855190220426    0.0000000000000000    0.0000000000000000
     0.0000000000000000   15.8768626591746376    0.0000000000000000
     0.0000000000000000    0.0000000000000000   20.0000000000000000
Cu H O
  18   36   36
Direct
  0.0000000000000000  0.0000000000000000  0.5000000000000000
  0.3333333333333333  0.0000000000000000  0.5000000000000000
  0.6666666666666666  0.0000000000000000  0.5000000000000000
  0.0000000000000000  0.3333333333333333  0.5000000000000000
  0.3333333333333333  0.3333333333333333  0.5000000000000000
  0.6666666666666666  0.3333333333333333  0.5000000000000000
  0.0000000000000000  0.6666666666666666  0.5000000000000000
  0.3333333333333333  0.6666666666666666  0.5000000000000000
  0.6666666666666666  0.6666666666666666  0.5000000000000000
  0.1666666666666667  0.1666666666666667  0.5000000000000000
  0.5000000000000000  0.1666666666666667  0.5000000000000000
  0.8333333333333333  0.1666666666666667  0.5000000000000000
  0.1666666666666667  0.5000000000000000  0.5000000000000000
  0.5000000000000000  0.5000000000000000  0.5000000000000000
  0.8333333333333333  0.5000000000000000  0.5000000000000000
  0.1666666666666667  0.8333333333333333  0.5000000000000000
  0.5000000000000000  0.8333333333333333  0.5000000000000000
  0.8333333333333333  0.8333333333333333  0.5000000000000000
  0.0000000000000000  0.0980982658363245  0.5991986007418199
  0.3333333333333333  0.0980982658363245  0.5991986007418199
  0.6666666666666666  0.0980982658363245  0.5991986007418199
  0.0000000000000000  0.4314315991696578  0.5991986007418199
  0.3333333333333333  0.4314315991696578  0.5991986007418199
  0.6666666666666666  0.4314315991696578  0.5991986007418199
  0.0000000000000000  0.7647649325029910  0.5991986007418199
  0.3333333333333333  0.7647649325029910  0.5991986007418199
  0.6666666666666666  0.7647649325029910  0.5991986007418199
  0.1666666666666667  0.2647649425029918  0.5991986007418199
  0.5000000000000000  0.2647649425029918  0.5991986007418199
  0.8333333333333333  0.2647649425029918  0.5991986007418199
  0.1666666666666667  0.5980982758363251  0.5991986007418199
  0.5000000000000000  0.5980982758363251  0.5991986007418199
  0.8333333333333333  0.5980982758363251  0.5991986007418199
  0.1666666666666667  0.9314316091696584  0.5991986007418199
  0.5000000000000000  0.9314316091696584  0.5991986007418199
  0.8333333333333333  0.9314316091696584  0.5991986007418199
  0.1666666566666658  0.0685684008303422  0.4008013992581802
  0.4999999899999992  0.0685684008303422  0.4008013992581802
  0.8333333233333324  0.0685684008303422  0.4008013992581802
  0.1666666566666658  0.4019017341636755  0.4008013992581802
  0.4999999899999992  0.4019017341636755  0.4008013992581802
  0.8333333233333324  0.4019017341636755  0.4008013992581802
  0.1666666566666658  0.7352350674970088  0.4008013992581802
  0.4999999899999992  0.7352350674970088  0.4008013992581802
  0.8333333233333324  0.7352350674970088  0.4008013992581802
  0.0000000000000000  0.2352350574970082  0.4008013992581802
  0.3333333333333333  0.2352350574970082  0.4008013992581802
  0.6666666666666666  0.2352350574970082  0.4008013992581802
  0.0000000000000000  0.5685683908303415  0.4008013992581802
  0.3333333333333333  0.5685683908303415  0.4008013992581802
  0.6666666666666666  0.5685683908303415  0.4008013992581802
  0.0000000000000000  0.9019017241636749  0.4008013992581802
  0.3333333333333333  0.9019017241636749  0.4008013992581802
  0.6666666666666666  0.9019017241636749  0.4008013992581802
  0.0000000000000000  0.1049364760099388  0.5510418545404374
  0.3333333333333333  0.1049364760099388  0.5510418545404374
  0.6666666666666666  0.1049364760099388  0.5510418545404374
  0.0000000000000000  0.4382698093432721  0.5510418545404374
  0.3333333333333333  0.4382698093432721  0.5510418545404374
  0.6666666666666666  0.4382698093432721  0.5510418545404374
  0.0000000000000000  0.7716031426766055  0.5510418545404374
  0.3333333333333333  0.7716031426766055  0.5510418545404374
  0.6666666666666666  0.7716031426766055  0.5510418545404374
  0.1666666666666667  0.2716031526766063  0.5510418545404374
  0.5000000000000000  0.2716031526766063  0.5510418545404374
  0.8333333333333333  0.2716031526766063  0.5510418545404374
  0.1666666666666667  0.6049364860099395  0.5510418545404374
  0.5000000000000000  0.6049364860099395  0.5510418545404374
  0.8333333333333333  0.6049364860099395  0.5510418545404374
  0.1666666666666667  0.9382698193432729  0.5510418545404374
  0.5000000000000000  0.9382698193432729  0.5510418545404374
  0.8333333333333333  0.9382698193432729  0.5510418545404374
  0.1666666566666658  0.0617301906567279  0.4489581754595656
  0.4999999899999992  0.0617301906567279  0.4489581754595656
  0.8333333233333324  0.0617301906567279  0.4489581754595656
  0.1666666566666658  0.3950635239900612  0.4489581754595656
  0.4999999899999992  0.3950635239900612  0.4489581754595656
  0.8333333233333324  0.3950635239900612  0.4489581754595656
  0.1666666566666658  0.7283968573233945  0.4489581754595656
  0.4999999899999992  0.7283968573233945  0.4489581754595656
  0.8333333233333324  0.7283968573233945  0.4489581754595656
  0.0000000000000000  0.2283968473233937  0.4489581754595656
  0.3333333333333333  0.2283968473233937  0.4489581754595656
  0.6666666666666666  0.2283968473233937  0.4489581754595656
  0.0000000000000000  0.5617301806567270  0.4489581754595656
  0.3333333333333333  0.5617301806567270  0.4489581754595656
  0.6666666666666666  0.5617301806567270  0.4489581754595656
  0.0000000000000000  0.8950635139900603  0.4489581754595656
  0.3333333333333333  0.8950635139900603  0.4489581754595656
  0.6666666666666666  0.8950635139900603  0.4489581754595656
