Fe(OH2)                                 
   1.00000000000000     
     3.6836177573104276    0.0000000000000000    0.0000000000000000
     0.0000000000000000    6.0392648474757129    0.0000000000000000
     0.0000000000000000    0.0000000000000000   20.0000000000000000
   Fe   H    O 
     2     4     4
Direct
 -0.0000000000000000 -0.0000000000000000  0.5000000000000000
  0.5000000000000000  0.5000000000000000  0.5000000000000000
 -0.0000000000000000  0.2872422730720066  0.6012755071115506
  0.5000000000000000  0.7872423030720093  0.6012755071115506
  0.4999999699999975  0.2127577269279929  0.3987244928884492
 -0.0000000000000000  0.7127576969279907  0.3987244928884492
  0.0000000000000000  0.3038865382587489  0.5527708243808849
  0.5000000000000000  0.8038865682587513  0.5527708243808849
  0.4999999699999975  0.1961134617412512  0.4472292056191109
 -0.0000000000000000  0.6961134317412486  0.4472292056191109
 
  0.00000000E+00  0.00000000E+00  0.00000000E+00
  0.00000000E+00  0.00000000E+00  0.00000000E+00
  0.00000000E+00  0.00000000E+00  0.00000000E+00
  0.00000000E+00  0.00000000E+00  0.00000000E+00
  0.00000000E+00  0.00000000E+00  0.00000000E+00
  0.00000000E+00  0.00000000E+00  0.00000000E+00
  0.00000000E+00  0.00000000E+00  0.00000000E+00
  0.00000000E+00  0.00000000E+00  0.00000000E+00
  0.00000000E+00  0.00000000E+00  0.00000000E+00
  0.00000000E+00  0.00000000E+00  0.00000000E+00
