Ti(OH2)                                 
   1.00000000000000     
     3.2670779798864755    0.0000000000000000    0.0000000000000000
     0.0000000000000000    5.6321577822028779    0.0000000000000000
     0.0000000000000000    0.0000000000000000   20.0000000000000000
   Ti   H    O 
     2     4     4
Direct
 -0.0000000000000000 -0.0000000000000000  0.5000000000000000
  0.5000000000000000  0.5000000000000000  0.5000000000000000
 -0.0000000000000000  0.3168075364500830  0.6048281659121911
  0.5000000000000000  0.8168075664500853  0.6048281659121911
  0.4999999699999975  0.1831924635499170  0.3951718050878102
  0.0000000000000000  0.6831924335499147  0.3951718050878102
 -0.0000000000000000  0.3282210342714063  0.5561835362013667
  0.5000000000000000  0.8282210642714082  0.5561835362013667
  0.4999999699999975  0.1717789657285938  0.4438164637986330
  0.0000000000000000  0.6717789357285918  0.4438164637986330
 
  0.00000000E+00  0.00000000E+00  0.00000000E+00
  0.00000000E+00  0.00000000E+00  0.00000000E+00
  0.00000000E+00  0.00000000E+00  0.00000000E+00
  0.00000000E+00  0.00000000E+00  0.00000000E+00
  0.00000000E+00  0.00000000E+00  0.00000000E+00
  0.00000000E+00  0.00000000E+00  0.00000000E+00
  0.00000000E+00  0.00000000E+00  0.00000000E+00
  0.00000000E+00  0.00000000E+00  0.00000000E+00
  0.00000000E+00  0.00000000E+00  0.00000000E+00
  0.00000000E+00  0.00000000E+00  0.00000000E+00
