Mn(OH2)                                 
   1.00000000000000     
     3.2985727835938627    0.0000000000000000    0.0000000000000000
     0.0000000000000000    5.5718420862858258    0.0000000000000000
     0.0000000000000000    0.0000000000000000   20.0000000000000000
   Mn   H    O 
     2     4     4
Direct
  0.0000000000000000  0.0000000000000000  0.5000000000000000
  0.5000000000000000  0.5000000000000000  0.5000000000000000
  0.0000000000000000  0.3164970656438222  0.6024758798865368
  0.5000000000000000  0.8164970956438246  0.6024758798865368
  0.4999999699999975  0.1835029343561778  0.3975240901134608
  0.0000000000000000  0.6835029043561754  0.3975240901134608
 -0.0000000000000000  0.3221704027430879  0.5540663566765432
  0.5000000000000000  0.8221704327430908  0.5540663566765432
  0.4999999699999975  0.1778295972569121  0.4459336433234570
  0.0000000000000000  0.6778295672569092  0.4459336433234570
 
  0.00000000E+00  0.00000000E+00  0.00000000E+00
  0.00000000E+00  0.00000000E+00  0.00000000E+00
  0.00000000E+00  0.00000000E+00  0.00000000E+00
  0.00000000E+00  0.00000000E+00  0.00000000E+00
  0.00000000E+00  0.00000000E+00  0.00000000E+00
  0.00000000E+00  0.00000000E+00  0.00000000E+00
  0.00000000E+00  0.00000000E+00  0.00000000E+00
  0.00000000E+00  0.00000000E+00  0.00000000E+00
  0.00000000E+00  0.00000000E+00  0.00000000E+00
  0.00000000E+00  0.00000000E+00  0.00000000E+00
