ribbon3b                                
   1.00000000000000     
    32.0000000000000000    0.0000000000000000    0.0000000000000000
     0.0000000000000000    5.0624723586297486    0.0000000000000000
     0.0000000000000000    0.0000000000000000   15.0000000000000000
   C    P 
    16    12
Direct
  0.3245585934112038  0.3731368215466813  0.0101993656192294
  0.3257830636839351  0.8729203962948836  0.0083573087014565
  0.4865894337619980  0.1229791343496797  0.0074151679842817
  0.4879059666438152  0.6283468339042451  0.0055156758027680
  0.3404992965711914  0.6218111220780572  0.9946504597746894
  0.3403038739266068  0.1242443215392492  0.9943223579412618
  0.5073853176286987  0.8783354439560579  0.9899445300385318
  0.5059316308103993  0.3730700365185425  0.9915897835562141
  0.6508960218300830  0.3783354206175573  0.0100549042608299
  0.6523497097580157  0.8730701822596043  0.0084097636597432
  0.8177821625359096  0.1218113442771342  0.0053502002906785
  0.8179776052262339  0.6242448370277865  0.0056783829856456
  0.6716919357638542  0.6229791559987090  0.9925843456628581
  0.6703754964334295  0.1283469174357269  0.9944838294430498
  0.8337228956180954  0.8731372630312332  0.9898013082970676
  0.8324983804402999  0.3729207101663932  0.9916437407533101
  0.3939904725029052  0.1524025786147081  0.9379401838699847
  0.4347994375531322  0.0944013243186869  0.0581712367175359
  0.4359183521411573  0.6518593539617598  0.0570770179592007
  0.3942278738136690  0.5925430794441574  0.9380002026231646
  0.6004280467581221  0.8495690582579579  0.0597342674358104
  0.5591199539991463  0.9077497100368684  0.9389025973232835
  0.5578532910294701  0.3495690022719084  0.9402650011819393
  0.5991614202837185  0.4077499290885611  0.0610966182413376
  0.7223631396322795  0.1518593102258930  0.9429230120571516
  0.7640535041152605  0.0925428318661064  0.0620001268873201
  0.7642908605075951  0.6524027448564482  0.0620599465488481
  0.7234820276197664  0.5944011720554042  0.9418286983828337
 
  0.00000000E+00  0.00000000E+00  0.00000000E+00
  0.00000000E+00  0.00000000E+00  0.00000000E+00
  0.00000000E+00  0.00000000E+00  0.00000000E+00
  0.00000000E+00  0.00000000E+00  0.00000000E+00
  0.00000000E+00  0.00000000E+00  0.00000000E+00
  0.00000000E+00  0.00000000E+00  0.00000000E+00
  0.00000000E+00  0.00000000E+00  0.00000000E+00
  0.00000000E+00  0.00000000E+00  0.00000000E+00
  0.00000000E+00  0.00000000E+00  0.00000000E+00
  0.00000000E+00  0.00000000E+00  0.00000000E+00
  0.00000000E+00  0.00000000E+00  0.00000000E+00
  0.00000000E+00  0.00000000E+00  0.00000000E+00
  0.00000000E+00  0.00000000E+00  0.00000000E+00
  0.00000000E+00  0.00000000E+00  0.00000000E+00
  0.00000000E+00  0.00000000E+00  0.00000000E+00
  0.00000000E+00  0.00000000E+00  0.00000000E+00
  0.00000000E+00  0.00000000E+00  0.00000000E+00
  0.00000000E+00  0.00000000E+00  0.00000000E+00
  0.00000000E+00  0.00000000E+00  0.00000000E+00
  0.00000000E+00  0.00000000E+00  0.00000000E+00
  0.00000000E+00  0.00000000E+00  0.00000000E+00
  0.00000000E+00  0.00000000E+00  0.00000000E+00
  0.00000000E+00  0.00000000E+00  0.00000000E+00
  0.00000000E+00  0.00000000E+00  0.00000000E+00
  0.00000000E+00  0.00000000E+00  0.00000000E+00
  0.00000000E+00  0.00000000E+00  0.00000000E+00
  0.00000000E+00  0.00000000E+00  0.00000000E+00
  0.00000000E+00  0.00000000E+00  0.00000000E+00
