Cu(OH2)                                 
   1.00000000000000     
     3.3375779704451043    0.0000000000000000    0.0000000000000000
     0.0000000000000000    5.3149233194008643    0.0000000000000000
     0.0000000000000000    0.0000000000000000   20.0000000000000000
   Cu   H    O 
     2     4     4
Direct
  0.0000000000000000 -0.0000000000000000  0.5000000000000000
  0.5000000000000000  0.5000000000000000  0.5000000000000000
  0.0000000000000000  0.2883249106027816  0.5992771123732252
  0.5000000000000000  0.7883249406027842  0.5992771123732252
  0.4999999699999975  0.2116750893972181  0.4007228876267748
  0.0000000000000000  0.7116750593972158  0.4007228876267748
 -0.0000000000000000  0.3116219174874332  0.5511316546508974
  0.5000000000000000  0.8116219474874360  0.5511316546508974
  0.4999999699999975  0.1883780825125667  0.4488683753491052
  0.0000000000000000  0.6883780525125640  0.4488683753491052
 
  0.00000000E+00  0.00000000E+00  0.00000000E+00
  0.00000000E+00  0.00000000E+00  0.00000000E+00
  0.00000000E+00  0.00000000E+00  0.00000000E+00
  0.00000000E+00  0.00000000E+00  0.00000000E+00
  0.00000000E+00  0.00000000E+00  0.00000000E+00
  0.00000000E+00  0.00000000E+00  0.00000000E+00
  0.00000000E+00  0.00000000E+00  0.00000000E+00
  0.00000000E+00  0.00000000E+00  0.00000000E+00
  0.00000000E+00  0.00000000E+00  0.00000000E+00
  0.00000000E+00  0.00000000E+00  0.00000000E+00
