generated by phonopy
   1.0
     9.8788046714169369    0.0000000000000000    0.0000000000000000
     0.0000000000000000   15.8741095964308343    0.0000000000000000
     0.0000000000000000    0.0000000000000000   20.0000000000000000
Cu H O
  18   36   36
Direct
  0.0000000000000000  0.0000000000000000  0.5000000000000000
  0.3333333333333333  0.0000000000000000  0.5000000000000000
  0.6666666666666666  0.0000000000000000  0.5000000000000000
  0.0000000000000000  0.3333333333333333  0.5000000000000000
  0.3333333333333333  0.3333333333333333  0.5000000000000000
  0.6666666666666666  0.3333333333333333  0.5000000000000000
  0.0000000000000000  0.6666666666666666  0.5000000000000000
  0.3333333333333333  0.6666666666666666  0.5000000000000000
  0.6666666666666666  0.6666666666666666  0.5000000000000000
  0.1666666666666667  0.1666666666666667  0.5000000000000000
  0.5000000000000000  0.1666666666666667  0.5000000000000000
  0.8333333333333333  0.1666666666666667  0.5000000000000000
  0.1666666666666667  0.5000000000000000  0.5000000000000000
  0.5000000000000000  0.5000000000000000  0.5000000000000000
  0.8333333333333333  0.5000000000000000  0.5000000000000000
  0.1666666666666667  0.8333333333333333  0.5000000000000000
  0.5000000000000000  0.8333333333333333  0.5000000000000000
  0.8333333333333333  0.8333333333333333  0.5000000000000000
  0.0000000000000000  0.0981091827411543  0.5991821286212358
  0.3333333333333333  0.0981091827411543  0.5991821286212358
  0.6666666666666666  0.0981091827411543  0.5991821286212358
  0.0000000000000000  0.4314425160744876  0.5991821286212358
  0.3333333333333333  0.4314425160744876  0.5991821286212358
  0.6666666666666666  0.4314425160744876  0.5991821286212358
  0.0000000000000000  0.7647758494078208  0.5991821286212358
  0.3333333333333333  0.7647758494078208  0.5991821286212358
  0.6666666666666666  0.7647758494078208  0.5991821286212358
  0.1666666666666667  0.2647758594078218  0.5991821286212358
  0.5000000000000000  0.2647758594078218  0.5991821286212358
  0.8333333333333333  0.2647758594078218  0.5991821286212358
  0.1666666666666667  0.5981091927411550  0.5991821286212358
  0.5000000000000000  0.5981091927411550  0.5991821286212358
  0.8333333333333333  0.5981091927411550  0.5991821286212358
  0.1666666666666667  0.9314425260744885  0.5991821286212358
  0.5000000000000000  0.9314425260744885  0.5991821286212358
  0.8333333333333333  0.9314425260744885  0.5991821286212358
  0.1666666566666658  0.0685574839255124  0.4008178713787642
  0.4999999899999992  0.0685574839255124  0.4008178713787642
  0.8333333233333324  0.0685574839255124  0.4008178713787642
  0.1666666566666658  0.4018908172588457  0.4008178713787642
  0.4999999899999992  0.4018908172588457  0.4008178713787642
  0.8333333233333324  0.4018908172588457  0.4008178713787642
  0.1666666566666658  0.7352241505921790  0.4008178713787642
  0.4999999899999992  0.7352241505921790  0.4008178713787642
  0.8333333233333324  0.7352241505921790  0.4008178713787642
  0.0000000000000000  0.2352241405921782  0.4008178713787642
  0.3333333333333333  0.2352241405921782  0.4008178713787642
  0.6666666666666666  0.2352241405921782  0.4008178713787642
  0.0000000000000000  0.5685574739255115  0.4008178713787642
  0.3333333333333333  0.5685574739255115  0.4008178713787642
  0.6666666666666666  0.5685574739255115  0.4008178713787642
  0.0000000000000000  0.9018908072588447  0.4008178713787642
  0.3333333333333333  0.9018908072588447  0.4008178713787642
  0.6666666666666666  0.9018908072588447  0.4008178713787642
  0.0000000000000000  0.1049582831074322  0.5510276517222386
  0.3333333333333333  0.1049582831074322  0.5510276517222386
  0.6666666666666666  0.1049582831074322  0.5510276517222386
  0.0000000000000000  0.4382916164407655  0.5510276517222386
  0.3333333333333333  0.4382916164407655  0.5510276517222386
  0.6666666666666666  0.4382916164407655  0.5510276517222386
  0.0000000000000000  0.7716249497740988  0.5510276517222386
  0.3333333333333333  0.7716249497740988  0.5510276517222386
  0.6666666666666666  0.7716249497740988  0.5510276517222386
  0.1666666666666667  0.2716249597740997  0.5510276517222386
  0.5000000000000000  0.2716249597740997  0.5510276517222386
  0.8333333333333333  0.2716249597740997  0.5510276517222386
  0.1666666666666667  0.6049582931074331  0.5510276517222386
  0.5000000000000000  0.6049582931074331  0.5510276517222386
  0.8333333333333333  0.6049582931074331  0.5510276517222386
  0.1666666666666667  0.9382916264407664  0.5510276517222386
  0.5000000000000000  0.9382916264407664  0.5510276517222386
  0.8333333333333333  0.9382916264407664  0.5510276517222386
  0.1666666566666658  0.0617083835592344  0.4489723782777637
  0.4999999899999992  0.0617083835592344  0.4489723782777637
  0.8333333233333324  0.0617083835592344  0.4489723782777637
  0.1666666566666658  0.3950417168925678  0.4489723782777637
  0.4999999899999992  0.3950417168925678  0.4489723782777637
  0.8333333233333324  0.3950417168925678  0.4489723782777637
  0.1666666566666658  0.7283750502259011  0.4489723782777637
  0.4999999899999992  0.7283750502259011  0.4489723782777637
  0.8333333233333324  0.7283750502259011  0.4489723782777637
  0.0000000000000000  0.2283750402259002  0.4489723782777637
  0.3333333333333333  0.2283750402259002  0.4489723782777637
  0.6666666666666666  0.2283750402259002  0.4489723782777637
  0.0000000000000000  0.5617083735592335  0.4489723782777637
  0.3333333333333333  0.5617083735592335  0.4489723782777637
  0.6666666666666666  0.5617083735592335  0.4489723782777637
  0.0000000000000000  0.8950417068925669  0.4489723782777637
  0.3333333333333333  0.8950417068925669  0.4489723782777637
  0.6666666666666666  0.8950417068925669  0.4489723782777637
