Rh(OH2)                                 
   1.00000000000000     
     3.5819868322479178    0.0000000000000000    0.0000000000000000
     0.0000000000000000    5.6127057293083338    0.0000000000000000
     0.0000000000000000    0.0000000000000000   20.0000000000000000
   Rh   H    O 
     2     4     4
Direct
 -0.0000000000000000 -0.0000000000000000  0.5000000000000000
  0.5000000000000000  0.5000000000000000  0.5000000000000000
 -0.0002221455258785  0.3071143902871615  0.5986739471756446
  0.5002221455258785  0.8071144202871640  0.5986739471756446
  0.4997778244741192  0.1928856097128385  0.4013260228243528
  0.0002221455258785  0.6928855797128360  0.4013260228243528
 -0.0004805649133300  0.3232040568150332  0.5502793333001187
  0.5004805649133295  0.8232040868150360  0.5502793333001187
  0.4995194050866675  0.1767959431849669  0.4497206956998804
  0.0004805649133300  0.6767959131849640  0.4497206956998804
 
  0.00000000E+00  0.00000000E+00  0.00000000E+00
  0.00000000E+00  0.00000000E+00  0.00000000E+00
  0.00000000E+00  0.00000000E+00  0.00000000E+00
  0.00000000E+00  0.00000000E+00  0.00000000E+00
  0.00000000E+00  0.00000000E+00  0.00000000E+00
  0.00000000E+00  0.00000000E+00  0.00000000E+00
  0.00000000E+00  0.00000000E+00  0.00000000E+00
  0.00000000E+00  0.00000000E+00  0.00000000E+00
  0.00000000E+00  0.00000000E+00  0.00000000E+00
  0.00000000E+00  0.00000000E+00  0.00000000E+00
