S-beta-PC
1.0
        5.1199998856         0.0000000000         0.0000000000
        0.0000000000         2.9500000477         0.0000000000
        0.0000000000         0.0000000000        20.0000000000
    P    C
    2    2
Direct
     0.000000000         0.000000000         0.000000000
     0.500000000         0.500000000         0.053730000
     0.179429993         0.500000000         0.019280000
     0.679430008         0.000000000         0.034440000
