Tbeta                                   
   1.00000000000000     
    21.6895134673803867    0.0000000000000000    0.0000000000000000
     0.0000000000000000    5.0632841231057979    0.0000000000000000
     0.0000000000000000    0.0000000000000000   21.6895134673803867
   P    C 
    16    16
Direct
  0.2541376455228104  0.1532877099487422  0.2214056009935703
  0.9800162988684207  0.8464195405866448  0.2592662036724178
  0.2592662036724178  0.6535804594133552  0.3284052559737844
  0.0870159538486348  0.3467122900512507  0.2541376455228104
  0.2607731966880351  0.0933672287811547  0.3264066164949071
  0.0852354787057195  0.9080564967127103  0.2542744842662117
  0.2542744842662117  0.5919435032872897  0.2231860761364857
  0.9820149383472980  0.4066327792188460  0.2607731966880351
  0.0542839093193948  0.1532877099487422  0.0870159538486348
  0.3284052559737844  0.8464195405866448  0.0491553511697873
  0.0491553511697873  0.6535804594133552  0.9800162988684207
  0.2214056009935703  0.3467122900512507  0.0542839093193948
  0.0476483581541700  0.0933672287811547  0.9820149383472980
  0.2231860761364857  0.9080564967127103  0.0541470705759934
  0.0541470705759934  0.5919435032872897  0.0852354787057195
  0.3264066164949071  0.4066327792188460  0.0476483581541700
  0.1753371655412295  0.1226166004381000  0.3229007695832067
  0.1444597373710579  0.8763912952833479  0.3123430438293227
  0.3123430438293227  0.6236087047166521  0.1639618174711472
  0.9855207852589984  0.3773833995619000  0.1753371655412295
  0.1738988802003192  0.6282026742633633  0.3227721874815757
  0.1468275386520972  0.3745684173905914  0.3130597599830693
  0.3130597611411190  0.1254315826094086  0.1615940026478953
  0.9856493685967109  0.8717973257366367  0.1738988946550464
  0.1330843893009757  0.1226166004381000  0.9855207852589984
  0.1639618174711472  0.8763912952833479  0.9960785110128825
  0.9960785110128825  0.6236087047166521  0.1444597373710579
  0.3229007695832067  0.3773833995619000  0.1330843893009757
  0.1345226746418788  0.6282026742633633  0.9856493673606295
  0.1615940161901079  0.3745684173905914  0.9953617948591358
  0.9953617937010861  0.1254315826094086  0.1468275521943099
  0.3227721862454942  0.8717973257366367  0.1345226601871587
 
  0.00000000E+00  0.00000000E+00  0.00000000E+00
  0.00000000E+00  0.00000000E+00  0.00000000E+00
  0.00000000E+00  0.00000000E+00  0.00000000E+00
  0.00000000E+00  0.00000000E+00  0.00000000E+00
  0.00000000E+00  0.00000000E+00  0.00000000E+00
  0.00000000E+00  0.00000000E+00  0.00000000E+00
  0.00000000E+00  0.00000000E+00  0.00000000E+00
  0.00000000E+00  0.00000000E+00  0.00000000E+00
  0.00000000E+00  0.00000000E+00  0.00000000E+00
  0.00000000E+00  0.00000000E+00  0.00000000E+00
  0.00000000E+00  0.00000000E+00  0.00000000E+00
  0.00000000E+00  0.00000000E+00  0.00000000E+00
  0.00000000E+00  0.00000000E+00  0.00000000E+00
  0.00000000E+00  0.00000000E+00  0.00000000E+00
  0.00000000E+00  0.00000000E+00  0.00000000E+00
  0.00000000E+00  0.00000000E+00  0.00000000E+00
  0.00000000E+00  0.00000000E+00  0.00000000E+00
  0.00000000E+00  0.00000000E+00  0.00000000E+00
  0.00000000E+00  0.00000000E+00  0.00000000E+00
  0.00000000E+00  0.00000000E+00  0.00000000E+00
  0.00000000E+00  0.00000000E+00  0.00000000E+00
  0.00000000E+00  0.00000000E+00  0.00000000E+00
  0.00000000E+00  0.00000000E+00  0.00000000E+00
  0.00000000E+00  0.00000000E+00  0.00000000E+00
  0.00000000E+00  0.00000000E+00  0.00000000E+00
  0.00000000E+00  0.00000000E+00  0.00000000E+00
  0.00000000E+00  0.00000000E+00  0.00000000E+00
  0.00000000E+00  0.00000000E+00  0.00000000E+00
  0.00000000E+00  0.00000000E+00  0.00000000E+00
  0.00000000E+00  0.00000000E+00  0.00000000E+00
  0.00000000E+00  0.00000000E+00  0.00000000E+00
  0.00000000E+00  0.00000000E+00  0.00000000E+00
